    1C
    1UUSER                                                              
    1UDATE              25.july.2017                                    
    1UTIME              09:51:26                                        
    1UHOST                                                              
    1UPGM               CalculiX                                        
    1UDIR                                                               
    1UDBN                                                               
    1UMAT    1SOLIDMATERIAL                                             
    2C                          2114                                     1
 -1         1 0.00000E+00 0.00000E+00 1.00000E+01
 -1         2 0.00000E+00 0.00000E+00 0.00000E+00
 -1         3 0.00000E+00 1.00000E+01 1.00000E+01
 -1         4 0.00000E+00 1.00000E+01 0.00000E+00
 -1         5 1.00000E+01 0.00000E+00 1.00000E+01
 -1         6 1.00000E+01 0.00000E+00 0.00000E+00
 -1         7 1.00000E+01 1.00000E+01 1.00000E+01
 -1         8 1.00000E+01 1.00000E+01 0.00000E+00
 -1         9 0.00000E+00 0.00000E+00 1.66667E+00
 -1        10 0.00000E+00 0.00000E+00 3.33333E+00
 -1        11 0.00000E+00 0.00000E+00 5.00000E+00
 -1        12 0.00000E+00 0.00000E+00 6.66667E+00
 -1        13 0.00000E+00 0.00000E+00 8.33333E+00
 -1        14 0.00000E+00 0.00000E+00 8.33333E-01
 -1        15 0.00000E+00 0.00000E+00 2.50000E+00
 -1        16 0.00000E+00 0.00000E+00 4.16667E+00
 -1        17 0.00000E+00 0.00000E+00 5.83333E+00
 -1        18 0.00000E+00 0.00000E+00 7.50000E+00
 -1        19 0.00000E+00 0.00000E+00 9.16667E+00
 -1        20 0.00000E+00 1.66667E+00 1.00000E+01
 -1        21 0.00000E+00 3.33333E+00 1.00000E+01
 -1        22 0.00000E+00 5.00000E+00 1.00000E+01
 -1        23 0.00000E+00 6.66667E+00 1.00000E+01
 -1        24 0.00000E+00 8.33333E+00 1.00000E+01
 -1        25 0.00000E+00 8.33333E-01 1.00000E+01
 -1        26 0.00000E+00 2.50000E+00 1.00000E+01
 -1        27 0.00000E+00 4.16667E+00 1.00000E+01
 -1        28 0.00000E+00 5.83333E+00 1.00000E+01
 -1        29 0.00000E+00 7.50000E+00 1.00000E+01
 -1        30 0.00000E+00 9.16667E+00 1.00000E+01
 -1        31 0.00000E+00 1.00000E+01 1.66667E+00
 -1        32 0.00000E+00 1.00000E+01 3.33333E+00
 -1        33 0.00000E+00 1.00000E+01 5.00000E+00
 -1        34 0.00000E+00 1.00000E+01 6.66667E+00
 -1        35 0.00000E+00 1.00000E+01 8.33333E+00
 -1        36 0.00000E+00 1.00000E+01 8.33333E-01
 -1        37 0.00000E+00 1.00000E+01 2.50000E+00
 -1        38 0.00000E+00 1.00000E+01 4.16667E+00
 -1        39 0.00000E+00 1.00000E+01 5.83333E+00
 -1        40 0.00000E+00 1.00000E+01 7.50000E+00
 -1        41 0.00000E+00 1.00000E+01 9.16667E+00
 -1        42 0.00000E+00 1.66667E+00 0.00000E+00
 -1        43 0.00000E+00 3.33333E+00 0.00000E+00
 -1        44 0.00000E+00 5.00000E+00 0.00000E+00
 -1        45 0.00000E+00 6.66667E+00 0.00000E+00
 -1        46 0.00000E+00 8.33333E+00 0.00000E+00
 -1        47 0.00000E+00 8.33333E-01 0.00000E+00
 -1        48 0.00000E+00 2.50000E+00 0.00000E+00
 -1        49 0.00000E+00 4.16667E+00 0.00000E+00
 -1        50 0.00000E+00 5.83333E+00 0.00000E+00
 -1        51 0.00000E+00 7.50000E+00 0.00000E+00
 -1        52 0.00000E+00 9.16667E+00 0.00000E+00
 -1        53 1.00000E+01 0.00000E+00 1.66667E+00
 -1        54 1.00000E+01 0.00000E+00 3.33333E+00
 -1        55 1.00000E+01 0.00000E+00 5.00000E+00
 -1        56 1.00000E+01 0.00000E+00 6.66667E+00
 -1        57 1.00000E+01 0.00000E+00 8.33333E+00
 -1        58 1.00000E+01 0.00000E+00 8.33333E-01
 -1        59 1.00000E+01 0.00000E+00 2.50000E+00
 -1        60 1.00000E+01 0.00000E+00 4.16667E+00
 -1        61 1.00000E+01 0.00000E+00 5.83333E+00
 -1        62 1.00000E+01 0.00000E+00 7.50000E+00
 -1        63 1.00000E+01 0.00000E+00 9.16667E+00
 -1        64 1.00000E+01 1.66667E+00 1.00000E+01
 -1        65 1.00000E+01 3.33333E+00 1.00000E+01
 -1        66 1.00000E+01 5.00000E+00 1.00000E+01
 -1        67 1.00000E+01 6.66667E+00 1.00000E+01
 -1        68 1.00000E+01 8.33333E+00 1.00000E+01
 -1        69 1.00000E+01 8.33333E-01 1.00000E+01
 -1        70 1.00000E+01 2.50000E+00 1.00000E+01
 -1        71 1.00000E+01 4.16667E+00 1.00000E+01
 -1        72 1.00000E+01 5.83333E+00 1.00000E+01
 -1        73 1.00000E+01 7.50000E+00 1.00000E+01
 -1        74 1.00000E+01 9.16667E+00 1.00000E+01
 -1        75 1.00000E+01 1.00000E+01 1.66667E+00
 -1        76 1.00000E+01 1.00000E+01 3.33333E+00
 -1        77 1.00000E+01 1.00000E+01 5.00000E+00
 -1        78 1.00000E+01 1.00000E+01 6.66667E+00
 -1        79 1.00000E+01 1.00000E+01 8.33333E+00
 -1        80 1.00000E+01 1.00000E+01 8.33333E-01
 -1        81 1.00000E+01 1.00000E+01 2.50000E+00
 -1        82 1.00000E+01 1.00000E+01 4.16667E+00
 -1        83 1.00000E+01 1.00000E+01 5.83333E+00
 -1        84 1.00000E+01 1.00000E+01 7.50000E+00
 -1        85 1.00000E+01 1.00000E+01 9.16667E+00
 -1        86 1.00000E+01 1.66667E+00 0.00000E+00
 -1        87 1.00000E+01 3.33333E+00 0.00000E+00
 -1        88 1.00000E+01 5.00000E+00 0.00000E+00
 -1        89 1.00000E+01 6.66667E+00 0.00000E+00
 -1        90 1.00000E+01 8.33333E+00 0.00000E+00
 -1        91 1.00000E+01 8.33333E-01 0.00000E+00
 -1        92 1.00000E+01 2.50000E+00 0.00000E+00
 -1        93 1.00000E+01 4.16667E+00 0.00000E+00
 -1        94 1.00000E+01 5.83333E+00 0.00000E+00
 -1        95 1.00000E+01 7.50000E+00 0.00000E+00
 -1        96 1.00000E+01 9.16667E+00 0.00000E+00
 -1        97 1.66667E+00 0.00000E+00 0.00000E+00
 -1        98 3.33333E+00 0.00000E+00 0.00000E+00
 -1        99 5.00000E+00 0.00000E+00 0.00000E+00
 -1       100 6.66667E+00 0.00000E+00 0.00000E+00
 -1       101 8.33333E+00 0.00000E+00 0.00000E+00
 -1       102 8.33333E-01 0.00000E+00 0.00000E+00
 -1       103 2.50000E+00 0.00000E+00 0.00000E+00
 -1       104 4.16667E+00 0.00000E+00 0.00000E+00
 -1       105 5.83333E+00 0.00000E+00 0.00000E+00
 -1       106 7.50000E+00 0.00000E+00 0.00000E+00
 -1       107 9.16667E+00 0.00000E+00 0.00000E+00
 -1       108 1.66667E+00 0.00000E+00 1.00000E+01
 -1       109 3.33333E+00 0.00000E+00 1.00000E+01
 -1       110 5.00000E+00 0.00000E+00 1.00000E+01
 -1       111 6.66667E+00 0.00000E+00 1.00000E+01
 -1       112 8.33333E+00 0.00000E+00 1.00000E+01
 -1       113 8.33333E-01 0.00000E+00 1.00000E+01
 -1       114 2.50000E+00 0.00000E+00 1.00000E+01
 -1       115 4.16667E+00 0.00000E+00 1.00000E+01
 -1       116 5.83333E+00 0.00000E+00 1.00000E+01
 -1       117 7.50000E+00 0.00000E+00 1.00000E+01
 -1       118 9.16667E+00 0.00000E+00 1.00000E+01
 -1       119 1.66667E+00 1.00000E+01 0.00000E+00
 -1       120 3.33333E+00 1.00000E+01 0.00000E+00
 -1       121 5.00000E+00 1.00000E+01 0.00000E+00
 -1       122 6.66667E+00 1.00000E+01 0.00000E+00
 -1       123 8.33333E+00 1.00000E+01 0.00000E+00
 -1       124 8.33333E-01 1.00000E+01 0.00000E+00
 -1       125 2.50000E+00 1.00000E+01 0.00000E+00
 -1       126 4.16667E+00 1.00000E+01 0.00000E+00
 -1       127 5.83333E+00 1.00000E+01 0.00000E+00
 -1       128 7.50000E+00 1.00000E+01 0.00000E+00
 -1       129 9.16667E+00 1.00000E+01 0.00000E+00
 -1       130 1.66667E+00 1.00000E+01 1.00000E+01
 -1       131 3.33333E+00 1.00000E+01 1.00000E+01
 -1       132 5.00000E+00 1.00000E+01 1.00000E+01
 -1       133 6.66667E+00 1.00000E+01 1.00000E+01
 -1       134 8.33333E+00 1.00000E+01 1.00000E+01
 -1       135 8.33333E-01 1.00000E+01 1.00000E+01
 -1       136 2.50000E+00 1.00000E+01 1.00000E+01
 -1       137 4.16667E+00 1.00000E+01 1.00000E+01
 -1       138 5.83333E+00 1.00000E+01 1.00000E+01
 -1       139 7.50000E+00 1.00000E+01 1.00000E+01
 -1       140 9.16667E+00 1.00000E+01 1.00000E+01
 -1       141 0.00000E+00 4.98880E+00 5.05507E+00
 -1       142 0.00000E+00 7.29089E+00 2.67113E+00
 -1       143 0.00000E+00 2.67113E+00 2.70911E+00
 -1       144 0.00000E+00 2.68206E+00 7.34678E+00
 -1       145 0.00000E+00 7.34678E+00 7.31794E+00
 -1       146 0.00000E+00 2.12873E+00 5.00858E+00
 -1       147 0.00000E+00 4.99142E+00 2.12873E+00
 -1       148 0.00000E+00 7.79762E+00 5.00000E+00
 -1       149 0.00000E+00 5.00000E+00 7.79762E+00
 -1       150 0.00000E+00 8.29167E+00 8.29167E+00
 -1       151 0.00000E+00 8.35637E+00 1.64198E+00
 -1       152 0.00000E+00 1.70833E+00 8.29167E+00
 -1       153 0.00000E+00 1.64198E+00 1.64363E+00
 -1       154 0.00000E+00 6.55389E+00 4.29217E+00
 -1       155 0.00000E+00 3.14018E+00 5.84469E+00
 -1       156 0.00000E+00 4.27152E+00 3.45496E+00
 -1       157 0.00000E+00 5.78803E+00 6.88410E+00
 -1       158 0.00000E+00 6.34531E+00 8.48366E+00
 -1       159 0.00000E+00 8.47320E+00 6.39574E+00
 -1       160 0.00000E+00 1.52680E+00 6.39574E+00
 -1       161 0.00000E+00 6.39574E+00 1.52680E+00
 -1       162 0.00000E+00 1.52680E+00 3.60426E+00
 -1       163 0.00000E+00 3.65768E+00 1.52903E+00
 -1       164 0.00000E+00 8.46816E+00 3.65894E+00
 -1       165 0.00000E+00 3.60426E+00 8.47320E+00
 -1       166 0.00000E+00 3.18562E+00 4.32336E+00
 -1       167 0.00000E+00 4.20055E+00 6.90024E+00
 -1       168 0.00000E+00 6.82472E+00 5.82417E+00
 -1       169 0.00000E+00 5.65964E+00 3.26579E+00
 -1       170 0.00000E+00 2.58945E+00 9.08057E+00
 -1       171 0.00000E+00 9.08057E+00 2.58945E+00
 -1       172 0.00000E+00 9.84134E-01 2.58996E+00
 -1       173 0.00000E+00 2.58945E+00 9.19435E-01
 -1       174 0.00000E+00 7.41004E+00 9.84134E-01
 -1       175 0.00000E+00 9.88157E-01 7.40958E+00
 -1       176 0.00000E+00 7.41055E+00 9.08057E+00
 -1       177 0.00000E+00 9.08057E+00 7.41055E+00
 -1       178 0.00000E+00 8.58570E-01 9.14143E+00
 -1       179 0.00000E+00 9.17243E+00 8.27163E-01
 -1       180 0.00000E+00 9.13387E+00 9.13387E+00
 -1       181 0.00000E+00 8.27163E-01 8.27575E-01
 -1       182 0.00000E+00 4.29285E-01 8.73738E+00
 -1       183 0.00000E+00 4.29285E-01 9.57071E+00
 -1       184 0.00000E+00 1.26262E+00 9.57071E+00
 -1       185 0.00000E+00 4.13581E-01 1.24712E+00
 -1       186 0.00000E+00 4.13581E-01 4.13787E-01
 -1       187 0.00000E+00 1.24691E+00 4.13787E-01
 -1       188 0.00000E+00 8.73360E+00 9.56693E+00
 -1       189 0.00000E+00 9.56693E+00 9.56693E+00
 -1       190 0.00000E+00 9.56693E+00 8.73360E+00
 -1       191 0.00000E+00 9.58621E+00 1.24691E+00
 -1       192 0.00000E+00 9.58621E+00 4.13581E-01
 -1       193 0.00000E+00 8.75288E+00 4.13581E-01
 -1       194 0.00000E+00 4.92067E-01 2.96164E+00
 -1       195 0.00000E+00 4.92067E-01 2.12831E+00
 -1       196 0.00000E+00 1.31306E+00 2.11679E+00
 -1       197 0.00000E+00 8.20992E-01 1.65515E+00
 -1       198 0.00000E+00 1.23457E+00 1.23560E+00
 -1       199 0.00000E+00 7.63399E-01 4.30213E+00
 -1       200 0.00000E+00 7.63399E-01 3.46879E+00
 -1       201 0.00000E+00 1.25547E+00 3.09711E+00
 -1       202 0.00000E+00 7.63399E-01 6.53121E+00
 -1       203 0.00000E+00 7.63399E-01 5.69787E+00
 -1       204 0.00000E+00 1.82777E+00 5.70216E+00
 -1       205 0.00000E+00 1.06437E+00 5.00429E+00
 -1       206 0.00000E+00 1.82777E+00 4.30642E+00
 -1       207 0.00000E+00 4.94079E-01 7.87146E+00
 -1       208 0.00000E+00 4.94079E-01 7.03813E+00
 -1       209 0.00000E+00 1.25748E+00 6.90266E+00
 -1       210 0.00000E+00 1.34825E+00 7.85063E+00
 -1       211 0.00000E+00 8.54167E-01 8.31250E+00
 -1       212 0.00000E+00 1.28345E+00 8.71655E+00
 -1       213 0.00000E+00 2.96139E+00 9.54028E+00
 -1       214 0.00000E+00 2.12806E+00 9.54028E+00
 -1       215 0.00000E+00 2.14889E+00 8.68612E+00
 -1       216 0.00000E+00 1.68750E+00 9.14583E+00
 -1       217 0.00000E+00 4.30213E+00 9.23660E+00
 -1       218 0.00000E+00 3.46879E+00 9.23660E+00
 -1       219 0.00000E+00 3.09685E+00 8.77688E+00
 -1       220 0.00000E+00 6.50599E+00 9.24183E+00
 -1       221 0.00000E+00 5.67266E+00 9.24183E+00
 -1       222 0.00000E+00 5.67266E+00 8.14064E+00
 -1       223 0.00000E+00 5.00000E+00 8.89881E+00
 -1       224 0.00000E+00 4.30213E+00 8.13541E+00
 -1       225 0.00000E+00 7.87194E+00 9.54028E+00
 -1       226 0.00000E+00 7.03861E+00 9.54028E+00
 -1       227 0.00000E+00 6.87793E+00 8.78211E+00
 -1       228 0.00000E+00 7.85111E+00 8.68612E+00
 -1       229 0.00000E+00 8.31250E+00 9.14583E+00
 -1       230 0.00000E+00 8.71277E+00 8.71277E+00
 -1       231 0.00000E+00 9.54028E+00 2.96139E+00
 -1       232 0.00000E+00 9.54028E+00 2.12806E+00
 -1       233 0.00000E+00 8.71847E+00 2.11572E+00
 -1       234 0.00000E+00 9.17818E+00 1.65433E+00
 -1       235 0.00000E+00 8.76440E+00 1.23457E+00
 -1       236 0.00000E+00 9.23408E+00 4.32947E+00
 -1       237 0.00000E+00 9.23408E+00 3.49614E+00
 -1       238 0.00000E+00 8.77436E+00 3.12420E+00
 -1       239 0.00000E+00 9.23660E+00 6.53121E+00
 -1       240 0.00000E+00 9.23660E+00 5.69787E+00
 -1       241 0.00000E+00 8.13541E+00 5.69787E+00
 -1       242 0.00000E+00 8.89881E+00 5.00000E+00
 -1       243 0.00000E+00 8.13289E+00 4.32947E+00
 -1       244 0.00000E+00 9.54028E+00 7.87194E+00
 -1       245 0.00000E+00 9.54028E+00 7.03861E+00
 -1       246 0.00000E+00 8.77688E+00 6.90315E+00
 -1       247 0.00000E+00 8.68612E+00 7.85111E+00
 -1       248 0.00000E+00 9.14583E+00 8.31250E+00
 -1       249 0.00000E+00 2.96139E+00 4.59717E-01
 -1       250 0.00000E+00 2.12806E+00 4.59717E-01
 -1       251 0.00000E+00 2.11572E+00 1.28153E+00
 -1       252 0.00000E+00 1.65433E+00 8.21816E-01
 -1       253 0.00000E+00 4.32884E+00 7.64515E-01
 -1       254 0.00000E+00 3.49550E+00 7.64515E-01
 -1       255 0.00000E+00 3.12356E+00 1.22423E+00
 -1       256 0.00000E+00 6.53121E+00 7.63399E-01
 -1       257 0.00000E+00 5.69787E+00 7.63399E-01
 -1       258 0.00000E+00 5.69358E+00 1.82777E+00
 -1       259 0.00000E+00 4.99571E+00 1.06437E+00
 -1       260 0.00000E+00 4.32455E+00 1.82888E+00
 -1       261 0.00000E+00 7.87169E+00 4.92067E-01
 -1       262 0.00000E+00 7.03836E+00 4.92067E-01
 -1       263 0.00000E+00 6.90289E+00 1.25547E+00
 -1       264 0.00000E+00 7.88321E+00 1.31306E+00
 -1       265 0.00000E+00 8.34485E+00 8.20992E-01
 -1       266 0.00000E+00 6.68931E+00 5.05817E+00
 -1       267 0.00000E+00 5.77135E+00 4.67362E+00
 -1       268 0.00000E+00 5.90676E+00 5.43962E+00
 -1       269 0.00000E+00 6.10677E+00 3.77898E+00
 -1       270 0.00000E+00 5.32422E+00 4.16043E+00
 -1       271 0.00000E+00 3.16290E+00 5.08402E+00
 -1       272 0.00000E+00 4.06449E+00 5.44988E+00
 -1       273 0.00000E+00 4.08721E+00 4.68922E+00
 -1       274 0.00000E+00 3.67037E+00 6.37247E+00
 -1       275 0.00000E+00 4.59468E+00 5.97766E+00
 -1       276 0.00000E+00 3.72857E+00 3.88916E+00
 -1       277 0.00000E+00 4.63016E+00 4.25501E+00
 -1       278 0.00000E+00 4.96558E+00 3.36037E+00
 -1       279 0.00000E+00 4.99429E+00 6.89217E+00
 -1       280 0.00000E+00 5.38841E+00 5.96959E+00
 -1       281 0.00000E+00 6.30638E+00 6.35414E+00
 -1       282 0.00000E+00 7.82363E+00 2.15656E+00
 -1       283 0.00000E+00 8.18573E+00 2.63029E+00
 -1       284 0.00000E+00 7.35047E+00 1.82763E+00
 -1       285 0.00000E+00 7.51103E+00 3.97556E+00
 -1       286 0.00000E+00 7.87952E+00 3.16504E+00
 -1       287 0.00000E+00 6.92239E+00 3.48165E+00
 -1       288 0.00000E+00 6.47526E+00 2.96846E+00
 -1       289 0.00000E+00 6.02769E+00 2.39629E+00
 -1       290 0.00000E+00 6.84332E+00 2.09896E+00
 -1       291 0.00000E+00 2.15656E+00 2.17637E+00
 -1       292 0.00000E+00 1.82763E+00 2.64953E+00
 -1       293 0.00000E+00 2.63029E+00 1.81427E+00
 -1       294 0.00000E+00 3.96460E+00 2.49199E+00
 -1       295 0.00000E+00 3.16440E+00 2.11907E+00
 -1       296 0.00000E+00 3.47132E+00 3.08203E+00
 -1       297 0.00000E+00 2.92837E+00 3.51623E+00
 -1       298 0.00000E+00 2.35621E+00 3.96381E+00
 -1       299 0.00000E+00 2.09896E+00 3.15668E+00
 -1       300 0.00000E+00 2.19520E+00 7.81922E+00
 -1       301 0.00000E+00 2.63575E+00 8.21367E+00
 -1       302 0.00000E+00 1.83511E+00 7.37818E+00
 -1       303 0.00000E+00 2.33349E+00 6.12022E+00
 -1       304 0.00000E+00 2.10443E+00 6.87126E+00
 -1       305 0.00000E+00 2.91112E+00 6.59573E+00
 -1       306 0.00000E+00 3.44131E+00 7.12351E+00
 -1       307 0.00000E+00 3.90241E+00 7.68672E+00
 -1       308 0.00000E+00 3.14316E+00 7.90999E+00
 -1       309 0.00000E+00 7.81922E+00 7.80480E+00
 -1       310 0.00000E+00 7.37866E+00 8.19925E+00
 -1       311 0.00000E+00 8.21367E+00 7.36425E+00
 -1       312 0.00000E+00 6.06667E+00 7.68388E+00
 -1       313 0.00000E+00 6.84604E+00 7.90080E+00
 -1       314 0.00000E+00 6.56740E+00 7.10102E+00
 -1       315 0.00000E+00 7.08575E+00 6.57106E+00
 -1       316 0.00000E+00 7.64896E+00 6.10996E+00
 -1       317 0.00000E+00 7.90999E+00 6.85684E+00
 -1       318 0.00000E+00 2.63446E+00 5.42663E+00
 -1       319 0.00000E+00 2.65718E+00 4.66597E+00
 -1       320 0.00000E+00 4.63147E+00 2.79184E+00
 -1       321 0.00000E+00 5.32553E+00 2.69726E+00
 -1       322 0.00000E+00 7.17576E+00 4.64608E+00
 -1       323 0.00000E+00 7.31117E+00 5.41209E+00
 -1       324 0.00000E+00 5.39401E+00 7.34086E+00
 -1       325 0.00000E+00 4.60028E+00 7.34893E+00
 -1       326 1.00000E+01 4.98880E+00 5.05507E+00
 -1       327 1.00000E+01 7.29089E+00 2.67113E+00
 -1       328 1.00000E+01 2.67113E+00 2.70911E+00
 -1       329 1.00000E+01 2.68206E+00 7.34678E+00
 -1       330 1.00000E+01 7.34678E+00 7.31794E+00
 -1       331 1.00000E+01 2.12873E+00 5.00858E+00
 -1       332 1.00000E+01 4.99142E+00 2.12873E+00
 -1       333 1.00000E+01 7.79762E+00 5.00000E+00
 -1       334 1.00000E+01 5.00000E+00 7.79762E+00
 -1       335 1.00000E+01 8.29167E+00 8.29167E+00
 -1       336 1.00000E+01 8.35637E+00 1.64198E+00
 -1       337 1.00000E+01 1.70833E+00 8.29167E+00
 -1       338 1.00000E+01 1.64198E+00 1.64363E+00
 -1       339 1.00000E+01 6.55389E+00 4.29217E+00
 -1       340 1.00000E+01 3.14018E+00 5.84469E+00
 -1       341 1.00000E+01 4.27152E+00 3.45496E+00
 -1       342 1.00000E+01 5.78803E+00 6.88410E+00
 -1       343 1.00000E+01 6.34531E+00 8.48366E+00
 -1       344 1.00000E+01 8.47320E+00 6.39574E+00
 -1       345 1.00000E+01 1.52680E+00 6.39574E+00
 -1       346 1.00000E+01 6.39574E+00 1.52680E+00
 -1       347 1.00000E+01 1.52680E+00 3.60426E+00
 -1       348 1.00000E+01 3.65768E+00 1.52903E+00
 -1       349 1.00000E+01 8.46816E+00 3.65894E+00
 -1       350 1.00000E+01 3.60426E+00 8.47320E+00
 -1       351 1.00000E+01 3.18562E+00 4.32336E+00
 -1       352 1.00000E+01 4.20055E+00 6.90024E+00
 -1       353 1.00000E+01 6.82472E+00 5.82417E+00
 -1       354 1.00000E+01 5.65964E+00 3.26579E+00
 -1       355 1.00000E+01 2.58945E+00 9.08057E+00
 -1       356 1.00000E+01 9.08057E+00 2.58945E+00
 -1       357 1.00000E+01 9.84134E-01 2.58996E+00
 -1       358 1.00000E+01 2.58945E+00 9.19435E-01
 -1       359 1.00000E+01 7.41004E+00 9.84134E-01
 -1       360 1.00000E+01 9.88157E-01 7.40958E+00
 -1       361 1.00000E+01 7.41055E+00 9.08057E+00
 -1       362 1.00000E+01 9.08057E+00 7.41055E+00
 -1       363 1.00000E+01 8.58570E-01 9.14143E+00
 -1       364 1.00000E+01 9.17243E+00 8.27163E-01
 -1       365 1.00000E+01 9.13387E+00 9.13387E+00
 -1       366 1.00000E+01 8.27163E-01 8.27575E-01
 -1       367 1.00000E+01 4.29285E-01 8.73738E+00
 -1       368 1.00000E+01 4.29285E-01 9.57071E+00
 -1       369 1.00000E+01 1.26262E+00 9.57071E+00
 -1       370 1.00000E+01 4.13581E-01 4.13787E-01
 -1       371 1.00000E+01 4.13581E-01 1.24712E+00
 -1       372 1.00000E+01 1.24691E+00 4.13787E-01
 -1       373 1.00000E+01 8.73360E+00 9.56693E+00
 -1       374 1.00000E+01 9.56693E+00 9.56693E+00
 -1       375 1.00000E+01 9.56693E+00 8.73360E+00
 -1       376 1.00000E+01 9.58621E+00 1.24691E+00
 -1       377 1.00000E+01 9.58621E+00 4.13581E-01
 -1       378 1.00000E+01 8.75288E+00 4.13581E-01
 -1       379 1.00000E+01 4.92067E-01 2.12831E+00
 -1       380 1.00000E+01 4.92067E-01 2.96164E+00
 -1       381 1.00000E+01 8.20992E-01 1.65515E+00
 -1       382 1.00000E+01 1.31306E+00 2.11679E+00
 -1       383 1.00000E+01 1.23457E+00 1.23560E+00
 -1       384 1.00000E+01 7.63399E-01 3.46879E+00
 -1       385 1.00000E+01 7.63399E-01 4.30213E+00
 -1       386 1.00000E+01 1.25547E+00 3.09711E+00
 -1       387 1.00000E+01 7.63399E-01 5.69787E+00
 -1       388 1.00000E+01 7.63399E-01 6.53121E+00
 -1       389 1.00000E+01 1.06437E+00 5.00429E+00
 -1       390 1.00000E+01 1.82777E+00 5.70216E+00
 -1       391 1.00000E+01 1.82777E+00 4.30642E+00
 -1       392 1.00000E+01 4.94079E-01 7.03813E+00
 -1       393 1.00000E+01 4.94079E-01 7.87146E+00
 -1       394 1.00000E+01 1.25748E+00 6.90266E+00
 -1       395 1.00000E+01 1.34825E+00 7.85063E+00
 -1       396 1.00000E+01 8.54167E-01 8.31250E+00
 -1       397 1.00000E+01 1.28345E+00 8.71655E+00
 -1       398 1.00000E+01 2.12806E+00 9.54028E+00
 -1       399 1.00000E+01 2.96139E+00 9.54028E+00
 -1       400 1.00000E+01 1.68750E+00 9.14583E+00
 -1       401 1.00000E+01 2.14889E+00 8.68612E+00
 -1       402 1.00000E+01 3.46879E+00 9.23660E+00
 -1       403 1.00000E+01 4.30213E+00 9.23660E+00
 -1       404 1.00000E+01 3.09685E+00 8.77688E+00
 -1       405 1.00000E+01 5.67266E+00 9.24183E+00
 -1       406 1.00000E+01 6.50599E+00 9.24183E+00
 -1       407 1.00000E+01 5.00000E+00 8.89881E+00
 -1       408 1.00000E+01 5.67266E+00 8.14064E+00
 -1       409 1.00000E+01 4.30213E+00 8.13541E+00
 -1       410 1.00000E+01 7.03861E+00 9.54028E+00
 -1       411 1.00000E+01 7.87194E+00 9.54028E+00
 -1       412 1.00000E+01 6.87793E+00 8.78211E+00
 -1       413 1.00000E+01 7.85111E+00 8.68612E+00
 -1       414 1.00000E+01 8.31250E+00 9.14583E+00
 -1       415 1.00000E+01 8.71277E+00 8.71277E+00
 -1       416 1.00000E+01 9.54028E+00 2.96139E+00
 -1       417 1.00000E+01 9.54028E+00 2.12806E+00
 -1       418 1.00000E+01 8.71847E+00 2.11572E+00
 -1       419 1.00000E+01 9.17818E+00 1.65433E+00
 -1       420 1.00000E+01 8.76440E+00 1.23457E+00
 -1       421 1.00000E+01 9.23408E+00 4.32947E+00
 -1       422 1.00000E+01 9.23408E+00 3.49614E+00
 -1       423 1.00000E+01 8.77436E+00 3.12420E+00
 -1       424 1.00000E+01 9.23660E+00 6.53121E+00
 -1       425 1.00000E+01 9.23660E+00 5.69787E+00
 -1       426 1.00000E+01 8.13541E+00 5.69787E+00
 -1       427 1.00000E+01 8.89881E+00 5.00000E+00
 -1       428 1.00000E+01 8.13289E+00 4.32947E+00
 -1       429 1.00000E+01 9.54028E+00 7.87194E+00
 -1       430 1.00000E+01 9.54028E+00 7.03861E+00
 -1       431 1.00000E+01 8.77688E+00 6.90315E+00
 -1       432 1.00000E+01 9.14583E+00 8.31250E+00
 -1       433 1.00000E+01 8.68612E+00 7.85111E+00
 -1       434 1.00000E+01 2.96139E+00 4.59717E-01
 -1       435 1.00000E+01 2.12806E+00 4.59717E-01
 -1       436 1.00000E+01 2.11572E+00 1.28153E+00
 -1       437 1.00000E+01 1.65433E+00 8.21816E-01
 -1       438 1.00000E+01 4.32884E+00 7.64515E-01
 -1       439 1.00000E+01 3.49550E+00 7.64515E-01
 -1       440 1.00000E+01 3.12356E+00 1.22423E+00
 -1       441 1.00000E+01 6.53121E+00 7.63399E-01
 -1       442 1.00000E+01 5.69787E+00 7.63399E-01
 -1       443 1.00000E+01 5.69358E+00 1.82777E+00
 -1       444 1.00000E+01 4.99571E+00 1.06437E+00
 -1       445 1.00000E+01 4.32455E+00 1.82888E+00
 -1       446 1.00000E+01 7.87169E+00 4.92067E-01
 -1       447 1.00000E+01 7.03836E+00 4.92067E-01
 -1       448 1.00000E+01 6.90289E+00 1.25547E+00
 -1       449 1.00000E+01 8.34485E+00 8.20992E-01
 -1       450 1.00000E+01 7.88321E+00 1.31306E+00
 -1       451 1.00000E+01 5.77135E+00 4.67362E+00
 -1       452 1.00000E+01 6.68931E+00 5.05817E+00
 -1       453 1.00000E+01 5.90676E+00 5.43962E+00
 -1       454 1.00000E+01 5.32422E+00 4.16043E+00
 -1       455 1.00000E+01 6.10677E+00 3.77898E+00
 -1       456 1.00000E+01 4.06449E+00 5.44988E+00
 -1       457 1.00000E+01 3.16290E+00 5.08402E+00
 -1       458 1.00000E+01 4.08721E+00 4.68922E+00
 -1       459 1.00000E+01 4.59468E+00 5.97766E+00
 -1       460 1.00000E+01 3.67037E+00 6.37247E+00
 -1       461 1.00000E+01 3.72857E+00 3.88916E+00
 -1       462 1.00000E+01 4.63016E+00 4.25501E+00
 -1       463 1.00000E+01 4.96558E+00 3.36037E+00
 -1       464 1.00000E+01 5.38841E+00 5.96959E+00
 -1       465 1.00000E+01 4.99429E+00 6.89217E+00
 -1       466 1.00000E+01 6.30638E+00 6.35414E+00
 -1       467 1.00000E+01 8.18573E+00 2.63029E+00
 -1       468 1.00000E+01 7.82363E+00 2.15656E+00
 -1       469 1.00000E+01 7.35047E+00 1.82763E+00
 -1       470 1.00000E+01 7.87952E+00 3.16504E+00
 -1       471 1.00000E+01 7.51103E+00 3.97556E+00
 -1       472 1.00000E+01 6.92239E+00 3.48165E+00
 -1       473 1.00000E+01 6.47526E+00 2.96846E+00
 -1       474 1.00000E+01 6.02769E+00 2.39629E+00
 -1       475 1.00000E+01 6.84332E+00 2.09896E+00
 -1       476 1.00000E+01 2.15656E+00 2.17637E+00
 -1       477 1.00000E+01 1.82763E+00 2.64953E+00
 -1       478 1.00000E+01 2.63029E+00 1.81427E+00
 -1       479 1.00000E+01 3.16440E+00 2.11907E+00
 -1       480 1.00000E+01 3.96460E+00 2.49199E+00
 -1       481 1.00000E+01 3.47132E+00 3.08203E+00
 -1       482 1.00000E+01 2.92837E+00 3.51623E+00
 -1       483 1.00000E+01 2.35621E+00 3.96381E+00
 -1       484 1.00000E+01 2.09896E+00 3.15668E+00
 -1       485 1.00000E+01 2.19520E+00 7.81922E+00
 -1       486 1.00000E+01 2.63575E+00 8.21367E+00
 -1       487 1.00000E+01 1.83511E+00 7.37818E+00
 -1       488 1.00000E+01 2.10443E+00 6.87126E+00
 -1       489 1.00000E+01 2.33349E+00 6.12022E+00
 -1       490 1.00000E+01 2.91112E+00 6.59573E+00
 -1       491 1.00000E+01 3.44131E+00 7.12351E+00
 -1       492 1.00000E+01 3.90241E+00 7.68672E+00
 -1       493 1.00000E+01 3.14316E+00 7.90999E+00
 -1       494 1.00000E+01 7.37866E+00 8.19925E+00
 -1       495 1.00000E+01 7.81922E+00 7.80480E+00
 -1       496 1.00000E+01 8.21367E+00 7.36425E+00
 -1       497 1.00000E+01 6.84604E+00 7.90080E+00
 -1       498 1.00000E+01 6.06667E+00 7.68388E+00
 -1       499 1.00000E+01 6.56740E+00 7.10102E+00
 -1       500 1.00000E+01 7.08575E+00 6.57106E+00
 -1       501 1.00000E+01 7.64896E+00 6.10996E+00
 -1       502 1.00000E+01 7.90999E+00 6.85684E+00
 -1       503 1.00000E+01 2.63446E+00 5.42663E+00
 -1       504 1.00000E+01 2.65718E+00 4.66597E+00
 -1       505 1.00000E+01 4.63147E+00 2.79184E+00
 -1       506 1.00000E+01 5.32553E+00 2.69726E+00
 -1       507 1.00000E+01 7.17576E+00 4.64608E+00
 -1       508 1.00000E+01 7.31117E+00 5.41209E+00
 -1       509 1.00000E+01 5.39401E+00 7.34086E+00
 -1       510 1.00000E+01 4.60028E+00 7.34893E+00
 -1       511 4.98880E+00 0.00000E+00 5.05507E+00
 -1       512 7.29089E+00 0.00000E+00 2.67113E+00
 -1       513 2.67113E+00 0.00000E+00 2.70911E+00
 -1       514 2.68206E+00 0.00000E+00 7.34678E+00
 -1       515 7.34678E+00 0.00000E+00 7.31794E+00
 -1       516 2.12873E+00 0.00000E+00 5.00858E+00
 -1       517 4.99142E+00 0.00000E+00 2.12873E+00
 -1       518 7.79762E+00 0.00000E+00 5.00000E+00
 -1       519 5.00000E+00 0.00000E+00 7.79762E+00
 -1       520 8.29167E+00 0.00000E+00 8.29167E+00
 -1       521 8.35637E+00 0.00000E+00 1.64198E+00
 -1       522 1.70833E+00 0.00000E+00 8.29167E+00
 -1       523 1.64198E+00 0.00000E+00 1.64363E+00
 -1       524 6.55389E+00 0.00000E+00 4.29217E+00
 -1       525 3.14018E+00 0.00000E+00 5.84469E+00
 -1       526 4.27152E+00 0.00000E+00 3.45496E+00
 -1       527 5.78803E+00 0.00000E+00 6.88410E+00
 -1       528 8.47320E+00 0.00000E+00 6.39574E+00
 -1       529 6.34531E+00 0.00000E+00 8.48366E+00
 -1       530 1.52680E+00 0.00000E+00 6.39574E+00
 -1       531 6.39574E+00 0.00000E+00 1.52680E+00
 -1       532 1.52680E+00 0.00000E+00 3.60426E+00
 -1       533 3.65768E+00 0.00000E+00 1.52903E+00
 -1       534 8.46816E+00 0.00000E+00 3.65894E+00
 -1       535 3.60426E+00 0.00000E+00 8.47320E+00
 -1       536 3.18562E+00 0.00000E+00 4.32336E+00
 -1       537 4.20055E+00 0.00000E+00 6.90024E+00
 -1       538 6.82472E+00 0.00000E+00 5.82417E+00
 -1       539 5.65964E+00 0.00000E+00 3.26579E+00
 -1       540 2.58945E+00 0.00000E+00 9.08057E+00
 -1       541 9.08057E+00 0.00000E+00 2.58945E+00
 -1       542 9.84134E-01 0.00000E+00 2.58996E+00
 -1       543 2.58945E+00 0.00000E+00 9.19435E-01
 -1       544 7.41004E+00 0.00000E+00 9.84134E-01
 -1       545 9.88157E-01 0.00000E+00 7.40958E+00
 -1       546 9.08057E+00 0.00000E+00 7.41055E+00
 -1       547 7.41055E+00 0.00000E+00 9.08057E+00
 -1       548 8.58570E-01 0.00000E+00 9.14143E+00
 -1       549 9.17243E+00 0.00000E+00 8.27163E-01
 -1       550 9.13387E+00 0.00000E+00 9.13387E+00
 -1       551 8.27163E-01 0.00000E+00 8.27575E-01
 -1       552 4.29285E-01 0.00000E+00 8.73738E+00
 -1       553 4.29285E-01 0.00000E+00 9.57071E+00
 -1       554 1.26262E+00 0.00000E+00 9.57071E+00
 -1       555 4.13581E-01 0.00000E+00 4.13787E-01
 -1       556 4.13581E-01 0.00000E+00 1.24712E+00
 -1       557 1.24691E+00 0.00000E+00 4.13787E-01
 -1       558 9.56693E+00 0.00000E+00 9.56693E+00
 -1       559 9.56693E+00 0.00000E+00 8.73360E+00
 -1       560 8.73360E+00 0.00000E+00 9.56693E+00
 -1       561 9.58621E+00 0.00000E+00 1.24691E+00
 -1       562 9.58621E+00 0.00000E+00 4.13581E-01
 -1       563 8.75288E+00 0.00000E+00 4.13581E-01
 -1       564 4.92067E-01 0.00000E+00 2.12831E+00
 -1       565 4.92067E-01 0.00000E+00 2.96164E+00
 -1       566 8.20992E-01 0.00000E+00 1.65515E+00
 -1       567 1.31306E+00 0.00000E+00 2.11679E+00
 -1       568 1.23457E+00 0.00000E+00 1.23560E+00
 -1       569 7.63399E-01 0.00000E+00 3.46879E+00
 -1       570 7.63399E-01 0.00000E+00 4.30213E+00
 -1       571 1.25547E+00 0.00000E+00 3.09711E+00
 -1       572 7.63399E-01 0.00000E+00 5.69787E+00
 -1       573 7.63399E-01 0.00000E+00 6.53121E+00
 -1       574 1.06437E+00 0.00000E+00 5.00429E+00
 -1       575 1.82777E+00 0.00000E+00 5.70216E+00
 -1       576 1.82777E+00 0.00000E+00 4.30642E+00
 -1       577 4.94079E-01 0.00000E+00 7.03813E+00
 -1       578 4.94079E-01 0.00000E+00 7.87146E+00
 -1       579 1.25748E+00 0.00000E+00 6.90266E+00
 -1       580 1.34825E+00 0.00000E+00 7.85063E+00
 -1       581 8.54167E-01 0.00000E+00 8.31250E+00
 -1       582 1.28345E+00 0.00000E+00 8.71655E+00
 -1       583 9.54028E+00 0.00000E+00 2.96139E+00
 -1       584 9.54028E+00 0.00000E+00 2.12806E+00
 -1       585 8.71847E+00 0.00000E+00 2.11572E+00
 -1       586 9.17818E+00 0.00000E+00 1.65433E+00
 -1       587 8.76440E+00 0.00000E+00 1.23457E+00
 -1       588 9.23408E+00 0.00000E+00 4.32947E+00
 -1       589 9.23408E+00 0.00000E+00 3.49614E+00
 -1       590 8.77436E+00 0.00000E+00 3.12420E+00
 -1       591 9.23660E+00 0.00000E+00 6.53121E+00
 -1       592 9.23660E+00 0.00000E+00 5.69787E+00
 -1       593 8.13541E+00 0.00000E+00 5.69787E+00
 -1       594 8.89881E+00 0.00000E+00 5.00000E+00
 -1       595 8.13289E+00 0.00000E+00 4.32947E+00
 -1       596 9.54028E+00 0.00000E+00 7.87194E+00
 -1       597 9.54028E+00 0.00000E+00 7.03861E+00
 -1       598 8.77688E+00 0.00000E+00 6.90315E+00
 -1       599 9.14583E+00 0.00000E+00 8.31250E+00
 -1       600 8.68612E+00 0.00000E+00 7.85111E+00
 -1       601 8.71277E+00 0.00000E+00 8.71277E+00
 -1       602 2.96139E+00 0.00000E+00 4.59717E-01
 -1       603 2.12806E+00 0.00000E+00 4.59717E-01
 -1       604 2.11572E+00 0.00000E+00 1.28153E+00
 -1       605 1.65433E+00 0.00000E+00 8.21816E-01
 -1       606 4.32884E+00 0.00000E+00 7.64515E-01
 -1       607 3.49550E+00 0.00000E+00 7.64515E-01
 -1       608 3.12356E+00 0.00000E+00 1.22423E+00
 -1       609 6.53121E+00 0.00000E+00 7.63399E-01
 -1       610 5.69787E+00 0.00000E+00 7.63399E-01
 -1       611 5.69358E+00 0.00000E+00 1.82777E+00
 -1       612 4.99571E+00 0.00000E+00 1.06437E+00
 -1       613 4.32455E+00 0.00000E+00 1.82888E+00
 -1       614 7.87169E+00 0.00000E+00 4.92067E-01
 -1       615 7.03836E+00 0.00000E+00 4.92067E-01
 -1       616 6.90289E+00 0.00000E+00 1.25547E+00
 -1       617 8.34485E+00 0.00000E+00 8.20992E-01
 -1       618 7.88321E+00 0.00000E+00 1.31306E+00
 -1       619 2.12806E+00 0.00000E+00 9.54028E+00
 -1       620 2.96139E+00 0.00000E+00 9.54028E+00
 -1       621 1.68750E+00 0.00000E+00 9.14583E+00
 -1       622 2.14889E+00 0.00000E+00 8.68612E+00
 -1       623 3.46879E+00 0.00000E+00 9.23660E+00
 -1       624 4.30213E+00 0.00000E+00 9.23660E+00
 -1       625 3.09685E+00 0.00000E+00 8.77688E+00
 -1       626 5.67266E+00 0.00000E+00 9.24183E+00
 -1       627 6.50599E+00 0.00000E+00 9.24183E+00
 -1       628 5.00000E+00 0.00000E+00 8.89881E+00
 -1       629 5.67266E+00 0.00000E+00 8.14064E+00
 -1       630 4.30213E+00 0.00000E+00 8.13541E+00
 -1       631 7.03861E+00 0.00000E+00 9.54028E+00
 -1       632 7.87194E+00 0.00000E+00 9.54028E+00
 -1       633 6.87793E+00 0.00000E+00 8.78211E+00
 -1       634 7.85111E+00 0.00000E+00 8.68612E+00
 -1       635 8.31250E+00 0.00000E+00 9.14583E+00
 -1       636 5.77135E+00 0.00000E+00 4.67362E+00
 -1       637 6.68931E+00 0.00000E+00 5.05817E+00
 -1       638 5.90676E+00 0.00000E+00 5.43962E+00
 -1       639 5.32422E+00 0.00000E+00 4.16043E+00
 -1       640 6.10677E+00 0.00000E+00 3.77898E+00
 -1       641 4.06449E+00 0.00000E+00 5.44988E+00
 -1       642 3.16290E+00 0.00000E+00 5.08402E+00
 -1       643 4.08721E+00 0.00000E+00 4.68922E+00
 -1       644 4.59468E+00 0.00000E+00 5.97766E+00
 -1       645 3.67037E+00 0.00000E+00 6.37247E+00
 -1       646 3.72857E+00 0.00000E+00 3.88916E+00
 -1       647 4.63016E+00 0.00000E+00 4.25501E+00
 -1       648 4.96558E+00 0.00000E+00 3.36037E+00
 -1       649 5.38841E+00 0.00000E+00 5.96959E+00
 -1       650 4.99429E+00 0.00000E+00 6.89217E+00
 -1       651 6.30638E+00 0.00000E+00 6.35414E+00
 -1       652 8.18573E+00 0.00000E+00 2.63029E+00
 -1       653 7.82363E+00 0.00000E+00 2.15656E+00
 -1       654 7.35047E+00 0.00000E+00 1.82763E+00
 -1       655 7.87952E+00 0.00000E+00 3.16504E+00
 -1       656 7.51103E+00 0.00000E+00 3.97556E+00
 -1       657 6.92239E+00 0.00000E+00 3.48165E+00
 -1       658 6.47526E+00 0.00000E+00 2.96846E+00
 -1       659 6.02769E+00 0.00000E+00 2.39629E+00
 -1       660 6.84332E+00 0.00000E+00 2.09896E+00
 -1       661 2.15656E+00 0.00000E+00 2.17637E+00
 -1       662 1.82763E+00 0.00000E+00 2.64953E+00
 -1       663 2.63029E+00 0.00000E+00 1.81427E+00
 -1       664 3.16440E+00 0.00000E+00 2.11907E+00
 -1       665 3.96460E+00 0.00000E+00 2.49199E+00
 -1       666 3.47132E+00 0.00000E+00 3.08203E+00
 -1       667 2.92837E+00 0.00000E+00 3.51623E+00
 -1       668 2.35621E+00 0.00000E+00 3.96381E+00
 -1       669 2.09896E+00 0.00000E+00 3.15668E+00
 -1       670 2.19520E+00 0.00000E+00 7.81922E+00
 -1       671 2.63575E+00 0.00000E+00 8.21367E+00
 -1       672 1.83511E+00 0.00000E+00 7.37818E+00
 -1       673 2.10443E+00 0.00000E+00 6.87126E+00
 -1       674 2.33349E+00 0.00000E+00 6.12022E+00
 -1       675 2.91112E+00 0.00000E+00 6.59573E+00
 -1       676 3.44131E+00 0.00000E+00 7.12351E+00
 -1       677 3.90241E+00 0.00000E+00 7.68672E+00
 -1       678 3.14316E+00 0.00000E+00 7.90999E+00
 -1       679 7.81922E+00 0.00000E+00 7.80480E+00
 -1       680 8.21367E+00 0.00000E+00 7.36425E+00
 -1       681 7.37866E+00 0.00000E+00 8.19925E+00
 -1       682 6.84604E+00 0.00000E+00 7.90080E+00
 -1       683 6.06667E+00 0.00000E+00 7.68388E+00
 -1       684 6.56740E+00 0.00000E+00 7.10102E+00
 -1       685 7.08575E+00 0.00000E+00 6.57106E+00
 -1       686 7.64896E+00 0.00000E+00 6.10996E+00
 -1       687 7.90999E+00 0.00000E+00 6.85684E+00
 -1       688 2.63446E+00 0.00000E+00 5.42663E+00
 -1       689 2.65718E+00 0.00000E+00 4.66597E+00
 -1       690 4.63147E+00 0.00000E+00 2.79184E+00
 -1       691 5.32553E+00 0.00000E+00 2.69726E+00
 -1       692 7.17576E+00 0.00000E+00 4.64608E+00
 -1       693 7.31117E+00 0.00000E+00 5.41209E+00
 -1       694 5.39401E+00 0.00000E+00 7.34086E+00
 -1       695 4.60028E+00 0.00000E+00 7.34893E+00
 -1       696 4.98880E+00 1.00000E+01 5.05507E+00
 -1       697 7.29089E+00 1.00000E+01 2.67113E+00
 -1       698 2.67113E+00 1.00000E+01 2.70911E+00
 -1       699 2.68206E+00 1.00000E+01 7.34678E+00
 -1       700 7.34678E+00 1.00000E+01 7.31794E+00
 -1       701 2.12873E+00 1.00000E+01 5.00858E+00
 -1       702 4.99142E+00 1.00000E+01 2.12873E+00
 -1       703 7.79762E+00 1.00000E+01 5.00000E+00
 -1       704 5.00000E+00 1.00000E+01 7.79762E+00
 -1       705 8.29167E+00 1.00000E+01 8.29167E+00
 -1       706 8.35637E+00 1.00000E+01 1.64198E+00
 -1       707 1.70833E+00 1.00000E+01 8.29167E+00
 -1       708 1.64198E+00 1.00000E+01 1.64363E+00
 -1       709 6.55389E+00 1.00000E+01 4.29217E+00
 -1       710 3.14018E+00 1.00000E+01 5.84469E+00
 -1       711 4.27152E+00 1.00000E+01 3.45496E+00
 -1       712 5.78803E+00 1.00000E+01 6.88410E+00
 -1       713 8.47320E+00 1.00000E+01 6.39574E+00
 -1       714 6.34531E+00 1.00000E+01 8.48366E+00
 -1       715 1.52680E+00 1.00000E+01 6.39574E+00
 -1       716 6.39574E+00 1.00000E+01 1.52680E+00
 -1       717 1.52680E+00 1.00000E+01 3.60426E+00
 -1       718 3.65768E+00 1.00000E+01 1.52903E+00
 -1       719 8.46816E+00 1.00000E+01 3.65894E+00
 -1       720 3.60426E+00 1.00000E+01 8.47320E+00
 -1       721 3.18562E+00 1.00000E+01 4.32336E+00
 -1       722 4.20055E+00 1.00000E+01 6.90024E+00
 -1       723 6.82472E+00 1.00000E+01 5.82417E+00
 -1       724 5.65964E+00 1.00000E+01 3.26579E+00
 -1       725 2.58945E+00 1.00000E+01 9.08057E+00
 -1       726 9.08057E+00 1.00000E+01 2.58945E+00
 -1       727 9.84134E-01 1.00000E+01 2.58996E+00
 -1       728 2.58945E+00 1.00000E+01 9.19435E-01
 -1       729 7.41004E+00 1.00000E+01 9.84134E-01
 -1       730 9.88157E-01 1.00000E+01 7.40958E+00
 -1       731 9.08057E+00 1.00000E+01 7.41055E+00
 -1       732 7.41055E+00 1.00000E+01 9.08057E+00
 -1       733 8.58570E-01 1.00000E+01 9.14143E+00
 -1       734 9.17243E+00 1.00000E+01 8.27163E-01
 -1       735 9.13387E+00 1.00000E+01 9.13387E+00
 -1       736 8.27163E-01 1.00000E+01 8.27575E-01
 -1       737 4.29285E-01 1.00000E+01 8.73738E+00
 -1       738 4.29285E-01 1.00000E+01 9.57071E+00
 -1       739 1.26262E+00 1.00000E+01 9.57071E+00
 -1       740 4.13581E-01 1.00000E+01 1.24712E+00
 -1       741 4.13581E-01 1.00000E+01 4.13787E-01
 -1       742 1.24691E+00 1.00000E+01 4.13787E-01
 -1       743 9.56693E+00 1.00000E+01 8.73360E+00
 -1       744 9.56693E+00 1.00000E+01 9.56693E+00
 -1       745 8.73360E+00 1.00000E+01 9.56693E+00
 -1       746 9.58621E+00 1.00000E+01 1.24691E+00
 -1       747 9.58621E+00 1.00000E+01 4.13581E-01
 -1       748 8.75288E+00 1.00000E+01 4.13581E-01
 -1       749 4.92067E-01 1.00000E+01 2.96164E+00
 -1       750 4.92067E-01 1.00000E+01 2.12831E+00
 -1       751 1.31306E+00 1.00000E+01 2.11679E+00
 -1       752 8.20992E-01 1.00000E+01 1.65515E+00
 -1       753 1.23457E+00 1.00000E+01 1.23560E+00
 -1       754 7.63399E-01 1.00000E+01 4.30213E+00
 -1       755 7.63399E-01 1.00000E+01 3.46879E+00
 -1       756 1.25547E+00 1.00000E+01 3.09711E+00
 -1       757 7.63399E-01 1.00000E+01 6.53121E+00
 -1       758 7.63399E-01 1.00000E+01 5.69787E+00
 -1       759 1.82777E+00 1.00000E+01 5.70216E+00
 -1       760 1.06437E+00 1.00000E+01 5.00429E+00
 -1       761 1.82777E+00 1.00000E+01 4.30642E+00
 -1       762 4.94079E-01 1.00000E+01 7.87146E+00
 -1       763 4.94079E-01 1.00000E+01 7.03813E+00
 -1       764 1.25748E+00 1.00000E+01 6.90266E+00
 -1       765 1.34825E+00 1.00000E+01 7.85063E+00
 -1       766 8.54167E-01 1.00000E+01 8.31250E+00
 -1       767 1.28345E+00 1.00000E+01 8.71655E+00
 -1       768 9.54028E+00 1.00000E+01 2.96139E+00
 -1       769 9.54028E+00 1.00000E+01 2.12806E+00
 -1       770 8.71847E+00 1.00000E+01 2.11572E+00
 -1       771 9.17818E+00 1.00000E+01 1.65433E+00
 -1       772 8.76440E+00 1.00000E+01 1.23457E+00
 -1       773 9.23408E+00 1.00000E+01 4.32947E+00
 -1       774 9.23408E+00 1.00000E+01 3.49614E+00
 -1       775 8.77436E+00 1.00000E+01 3.12420E+00
 -1       776 9.23660E+00 1.00000E+01 6.53121E+00
 -1       777 9.23660E+00 1.00000E+01 5.69787E+00
 -1       778 8.13541E+00 1.00000E+01 5.69787E+00
 -1       779 8.89881E+00 1.00000E+01 5.00000E+00
 -1       780 8.13289E+00 1.00000E+01 4.32947E+00
 -1       781 9.54028E+00 1.00000E+01 7.87194E+00
 -1       782 9.54028E+00 1.00000E+01 7.03861E+00
 -1       783 8.77688E+00 1.00000E+01 6.90315E+00
 -1       784 8.68612E+00 1.00000E+01 7.85111E+00
 -1       785 9.14583E+00 1.00000E+01 8.31250E+00
 -1       786 8.71277E+00 1.00000E+01 8.71277E+00
 -1       787 2.96139E+00 1.00000E+01 4.59717E-01
 -1       788 2.12806E+00 1.00000E+01 4.59717E-01
 -1       789 2.11572E+00 1.00000E+01 1.28153E+00
 -1       790 1.65433E+00 1.00000E+01 8.21816E-01
 -1       791 4.32884E+00 1.00000E+01 7.64515E-01
 -1       792 3.49550E+00 1.00000E+01 7.64515E-01
 -1       793 3.12356E+00 1.00000E+01 1.22423E+00
 -1       794 6.53121E+00 1.00000E+01 7.63399E-01
 -1       795 5.69787E+00 1.00000E+01 7.63399E-01
 -1       796 5.69358E+00 1.00000E+01 1.82777E+00
 -1       797 4.99571E+00 1.00000E+01 1.06437E+00
 -1       798 4.32455E+00 1.00000E+01 1.82888E+00
 -1       799 7.87169E+00 1.00000E+01 4.92067E-01
 -1       800 7.03836E+00 1.00000E+01 4.92067E-01
 -1       801 6.90289E+00 1.00000E+01 1.25547E+00
 -1       802 7.88321E+00 1.00000E+01 1.31306E+00
 -1       803 8.34485E+00 1.00000E+01 8.20992E-01
 -1       804 2.96139E+00 1.00000E+01 9.54028E+00
 -1       805 2.12806E+00 1.00000E+01 9.54028E+00
 -1       806 2.14889E+00 1.00000E+01 8.68612E+00
 -1       807 1.68750E+00 1.00000E+01 9.14583E+00
 -1       808 4.30213E+00 1.00000E+01 9.23660E+00
 -1       809 3.46879E+00 1.00000E+01 9.23660E+00
 -1       810 3.09685E+00 1.00000E+01 8.77688E+00
 -1       811 6.50599E+00 1.00000E+01 9.24183E+00
 -1       812 5.67266E+00 1.00000E+01 9.24183E+00
 -1       813 5.67266E+00 1.00000E+01 8.14064E+00
 -1       814 5.00000E+00 1.00000E+01 8.89881E+00
 -1       815 4.30213E+00 1.00000E+01 8.13541E+00
 -1       816 7.87194E+00 1.00000E+01 9.54028E+00
 -1       817 7.03861E+00 1.00000E+01 9.54028E+00
 -1       818 6.87793E+00 1.00000E+01 8.78211E+00
 -1       819 7.85111E+00 1.00000E+01 8.68612E+00
 -1       820 8.31250E+00 1.00000E+01 9.14583E+00
 -1       821 6.68931E+00 1.00000E+01 5.05817E+00
 -1       822 5.77135E+00 1.00000E+01 4.67362E+00
 -1       823 5.90676E+00 1.00000E+01 5.43962E+00
 -1       824 6.10677E+00 1.00000E+01 3.77898E+00
 -1       825 5.32422E+00 1.00000E+01 4.16043E+00
 -1       826 3.16290E+00 1.00000E+01 5.08402E+00
 -1       827 4.06449E+00 1.00000E+01 5.44988E+00
 -1       828 4.08721E+00 1.00000E+01 4.68922E+00
 -1       829 3.67037E+00 1.00000E+01 6.37247E+00
 -1       830 4.59468E+00 1.00000E+01 5.97766E+00
 -1       831 3.72857E+00 1.00000E+01 3.88916E+00
 -1       832 4.63016E+00 1.00000E+01 4.25501E+00
 -1       833 4.96558E+00 1.00000E+01 3.36037E+00
 -1       834 4.99429E+00 1.00000E+01 6.89217E+00
 -1       835 5.38841E+00 1.00000E+01 5.96959E+00
 -1       836 6.30638E+00 1.00000E+01 6.35414E+00
 -1       837 7.82363E+00 1.00000E+01 2.15656E+00
 -1       838 8.18573E+00 1.00000E+01 2.63029E+00
 -1       839 7.35047E+00 1.00000E+01 1.82763E+00
 -1       840 7.51103E+00 1.00000E+01 3.97556E+00
 -1       841 7.87952E+00 1.00000E+01 3.16504E+00
 -1       842 6.92239E+00 1.00000E+01 3.48165E+00
 -1       843 6.47526E+00 1.00000E+01 2.96846E+00
 -1       844 6.02769E+00 1.00000E+01 2.39629E+00
 -1       845 6.84332E+00 1.00000E+01 2.09896E+00
 -1       846 2.15656E+00 1.00000E+01 2.17637E+00
 -1       847 1.82763E+00 1.00000E+01 2.64953E+00
 -1       848 2.63029E+00 1.00000E+01 1.81427E+00
 -1       849 3.96460E+00 1.00000E+01 2.49199E+00
 -1       850 3.16440E+00 1.00000E+01 2.11907E+00
 -1       851 3.47132E+00 1.00000E+01 3.08203E+00
 -1       852 2.92837E+00 1.00000E+01 3.51623E+00
 -1       853 2.35621E+00 1.00000E+01 3.96381E+00
 -1       854 2.09896E+00 1.00000E+01 3.15668E+00
 -1       855 2.19520E+00 1.00000E+01 7.81922E+00
 -1       856 2.63575E+00 1.00000E+01 8.21367E+00
 -1       857 1.83511E+00 1.00000E+01 7.37818E+00
 -1       858 2.33349E+00 1.00000E+01 6.12022E+00
 -1       859 2.10443E+00 1.00000E+01 6.87126E+00
 -1       860 2.91112E+00 1.00000E+01 6.59573E+00
 -1       861 3.44131E+00 1.00000E+01 7.12351E+00
 -1       862 3.90241E+00 1.00000E+01 7.68672E+00
 -1       863 3.14316E+00 1.00000E+01 7.90999E+00
 -1       864 7.81922E+00 1.00000E+01 7.80480E+00
 -1       865 8.21367E+00 1.00000E+01 7.36425E+00
 -1       866 7.37866E+00 1.00000E+01 8.19925E+00
 -1       867 6.06667E+00 1.00000E+01 7.68388E+00
 -1       868 6.84604E+00 1.00000E+01 7.90080E+00
 -1       869 6.56740E+00 1.00000E+01 7.10102E+00
 -1       870 7.08575E+00 1.00000E+01 6.57106E+00
 -1       871 7.64896E+00 1.00000E+01 6.10996E+00
 -1       872 7.90999E+00 1.00000E+01 6.85684E+00
 -1       873 2.63446E+00 1.00000E+01 5.42663E+00
 -1       874 2.65718E+00 1.00000E+01 4.66597E+00
 -1       875 4.63147E+00 1.00000E+01 2.79184E+00
 -1       876 5.32553E+00 1.00000E+01 2.69726E+00
 -1       877 7.17576E+00 1.00000E+01 4.64608E+00
 -1       878 7.31117E+00 1.00000E+01 5.41209E+00
 -1       879 5.39401E+00 1.00000E+01 7.34086E+00
 -1       880 4.60028E+00 1.00000E+01 7.34893E+00
 -1       881 5.23819E+00 5.04661E+00 0.00000E+00
 -1       882 2.67707E+00 2.63867E+00 0.00000E+00
 -1       883 2.65528E+00 7.15169E+00 0.00000E+00
 -1       884 7.06922E+00 2.82341E+00 0.00000E+00
 -1       885 7.34678E+00 7.31794E+00 0.00000E+00
 -1       886 2.19497E+00 5.09909E+00 0.00000E+00
 -1       887 5.05947E+00 2.17168E+00 0.00000E+00
 -1       888 5.00000E+00 7.79762E+00 0.00000E+00
 -1       889 7.79762E+00 5.00000E+00 0.00000E+00
 -1       890 8.29167E+00 8.29167E+00 0.00000E+00
 -1       891 1.57694E+00 8.40664E+00 0.00000E+00
 -1       892 8.44282E+00 1.54440E+00 0.00000E+00
 -1       893 1.70833E+00 1.70833E+00 0.00000E+00
 -1       894 5.62585E+00 6.52668E+00 0.00000E+00
 -1       895 6.49411E+00 4.31611E+00 0.00000E+00
 -1       896 3.54646E+00 4.17535E+00 0.00000E+00
 -1       897 1.42974E+00 6.36187E+00 0.00000E+00
 -1       898 8.47320E+00 6.39574E+00 0.00000E+00
 -1       899 6.39574E+00 1.52680E+00 0.00000E+00
 -1       900 6.39574E+00 8.47320E+00 0.00000E+00
 -1       901 1.53448E+00 3.65677E+00 0.00000E+00
 -1       902 3.65427E+00 1.50934E+00 0.00000E+00
 -1       903 8.43938E+00 3.72643E+00 0.00000E+00
 -1       904 3.73215E+00 8.49159E+00 0.00000E+00
 -1       905 3.89709E+00 5.82720E+00 0.00000E+00
 -1       906 5.25443E+00 3.59361E+00 0.00000E+00
 -1       907 6.82882E+00 5.83195E+00 0.00000E+00
 -1       908 4.16484E+00 7.10320E+00 0.00000E+00
 -1       909 4.03834E+00 2.81773E+00 0.00000E+00
 -1       910 9.08057E+00 2.58945E+00 0.00000E+00
 -1       911 2.58945E+00 9.08057E+00 0.00000E+00
 -1       912 9.19435E-01 2.58945E+00 0.00000E+00
 -1       913 2.58945E+00 9.19435E-01 0.00000E+00
 -1       914 7.41055E+00 9.19435E-01 0.00000E+00
 -1       915 9.08057E+00 7.41055E+00 0.00000E+00
 -1       916 7.40958E+00 9.01184E+00 0.00000E+00
 -1       917 9.19435E-01 7.41055E+00 0.00000E+00
 -1       918 9.19404E+00 8.02767E-01 0.00000E+00
 -1       919 8.10902E-01 9.18499E+00 0.00000E+00
 -1       920 9.13387E+00 9.13387E+00 0.00000E+00
 -1       921 8.58570E-01 8.58570E-01 0.00000E+00
 -1       922 4.29285E-01 1.26262E+00 0.00000E+00
 -1       923 4.29285E-01 4.29285E-01 0.00000E+00
 -1       924 1.26262E+00 4.29285E-01 0.00000E+00
 -1       925 4.05451E-01 8.75916E+00 0.00000E+00
 -1       926 4.05451E-01 9.59250E+00 0.00000E+00
 -1       927 1.23878E+00 9.59250E+00 0.00000E+00
 -1       928 9.59702E+00 1.23472E+00 0.00000E+00
 -1       929 9.59702E+00 4.01383E-01 0.00000E+00
 -1       930 8.76369E+00 4.01383E-01 0.00000E+00
 -1       931 9.56693E+00 8.73360E+00 0.00000E+00
 -1       932 9.56693E+00 9.56693E+00 0.00000E+00
 -1       933 8.73360E+00 9.56693E+00 0.00000E+00
 -1       934 4.59717E-01 2.96139E+00 0.00000E+00
 -1       935 4.59717E-01 2.12806E+00 0.00000E+00
 -1       936 1.31388E+00 2.14889E+00 0.00000E+00
 -1       937 8.54167E-01 1.68750E+00 0.00000E+00
 -1       938 1.28345E+00 1.28345E+00 0.00000E+00
 -1       939 7.67242E-01 4.32838E+00 0.00000E+00
 -1       940 7.67242E-01 3.49505E+00 0.00000E+00
 -1       941 1.22696E+00 3.12311E+00 0.00000E+00
 -1       942 7.14870E-01 6.51427E+00 0.00000E+00
 -1       943 7.14870E-01 5.68093E+00 0.00000E+00
 -1       944 1.81236E+00 5.73048E+00 0.00000E+00
 -1       945 1.09749E+00 5.04954E+00 0.00000E+00
 -1       946 1.86473E+00 4.37793E+00 0.00000E+00
 -1       947 4.59717E-01 7.87194E+00 0.00000E+00
 -1       948 4.59717E-01 7.03861E+00 0.00000E+00
 -1       949 1.17459E+00 6.88621E+00 0.00000E+00
 -1       950 1.24819E+00 7.90860E+00 0.00000E+00
 -1       951 7.88471E-01 8.36999E+00 0.00000E+00
 -1       952 1.19392E+00 8.79582E+00 0.00000E+00
 -1       953 9.54028E+00 2.96139E+00 0.00000E+00
 -1       954 9.54028E+00 2.12806E+00 0.00000E+00
 -1       955 8.76169E+00 2.06692E+00 0.00000E+00
 -1       956 9.22141E+00 1.60553E+00 0.00000E+00
 -1       957 8.81843E+00 1.17358E+00 0.00000E+00
 -1       958 9.21969E+00 4.36321E+00 0.00000E+00
 -1       959 9.21969E+00 3.52988E+00 0.00000E+00
 -1       960 8.75997E+00 3.15794E+00 0.00000E+00
 -1       961 9.23660E+00 6.53121E+00 0.00000E+00
 -1       962 9.23660E+00 5.69787E+00 0.00000E+00
 -1       963 8.13541E+00 5.69787E+00 0.00000E+00
 -1       964 8.89881E+00 5.00000E+00 0.00000E+00
 -1       965 8.11850E+00 4.36321E+00 0.00000E+00
 -1       966 9.54028E+00 7.87194E+00 0.00000E+00
 -1       967 9.54028E+00 7.03861E+00 0.00000E+00
 -1       968 8.77688E+00 6.90315E+00 0.00000E+00
 -1       969 8.68612E+00 7.85111E+00 0.00000E+00
 -1       970 9.14583E+00 8.31250E+00 0.00000E+00
 -1       971 8.71277E+00 8.71277E+00 0.00000E+00
 -1       972 2.96139E+00 4.59717E-01 0.00000E+00
 -1       973 2.12806E+00 4.59717E-01 0.00000E+00
 -1       974 2.14889E+00 1.31388E+00 0.00000E+00
 -1       975 1.68750E+00 8.54167E-01 0.00000E+00
 -1       976 4.32714E+00 7.54668E-01 0.00000E+00
 -1       977 3.49380E+00 7.54668E-01 0.00000E+00
 -1       978 3.12186E+00 1.21439E+00 0.00000E+00
 -1       979 6.53121E+00 7.63399E-01 0.00000E+00
 -1       980 5.69787E+00 7.63399E-01 0.00000E+00
 -1       981 5.72761E+00 1.84924E+00 0.00000E+00
 -1       982 5.02973E+00 1.08584E+00 0.00000E+00
 -1       983 4.35687E+00 1.84051E+00 0.00000E+00
 -1       984 7.87194E+00 4.59717E-01 0.00000E+00
 -1       985 7.03861E+00 4.59717E-01 0.00000E+00
 -1       986 6.90315E+00 1.22312E+00 0.00000E+00
 -1       987 7.92668E+00 1.23192E+00 0.00000E+00
 -1       988 8.38807E+00 7.72201E-01 0.00000E+00
 -1       989 2.96139E+00 9.54028E+00 0.00000E+00
 -1       990 2.12806E+00 9.54028E+00 0.00000E+00
 -1       991 2.08320E+00 8.74360E+00 0.00000E+00
 -1       992 1.62180E+00 9.20332E+00 0.00000E+00
 -1       993 4.36607E+00 9.24580E+00 0.00000E+00
 -1       994 3.53274E+00 9.24580E+00 0.00000E+00
 -1       995 3.16080E+00 8.78608E+00 0.00000E+00
 -1       996 6.53121E+00 9.23660E+00 0.00000E+00
 -1       997 5.69787E+00 9.23660E+00 0.00000E+00
 -1       998 5.69787E+00 8.13541E+00 0.00000E+00
 -1       999 5.00000E+00 8.89881E+00 0.00000E+00
 -1      1000 4.36607E+00 8.14460E+00 0.00000E+00
 -1      1001 7.87146E+00 9.50592E+00 0.00000E+00
 -1      1002 7.03813E+00 9.50592E+00 0.00000E+00
 -1      1003 6.90266E+00 8.74252E+00 0.00000E+00
 -1      1004 7.85063E+00 8.65175E+00 0.00000E+00
 -1      1005 8.31250E+00 9.14583E+00 0.00000E+00
 -1      1006 4.76147E+00 6.17694E+00 0.00000E+00
 -1      1007 5.43202E+00 5.78665E+00 0.00000E+00
 -1      1008 4.56764E+00 5.43691E+00 0.00000E+00
 -1      1009 6.22733E+00 6.17932E+00 0.00000E+00
 -1      1010 6.03350E+00 5.43928E+00 0.00000E+00
 -1      1011 5.87427E+00 3.95486E+00 0.00000E+00
 -1      1012 5.24631E+00 4.32011E+00 0.00000E+00
 -1      1013 5.86615E+00 4.68136E+00 0.00000E+00
 -1      1014 6.66146E+00 5.07403E+00 0.00000E+00
 -1      1015 3.72177E+00 5.00128E+00 0.00000E+00
 -1      1016 4.39232E+00 4.61098E+00 0.00000E+00
 -1      1017 4.40044E+00 3.88448E+00 0.00000E+00
 -1      1018 2.19270E+00 2.17350E+00 0.00000E+00
 -1      1019 1.79825E+00 2.61406E+00 0.00000E+00
 -1      1020 2.63326E+00 1.77905E+00 0.00000E+00
 -1      1021 2.54047E+00 3.91606E+00 0.00000E+00
 -1      1022 3.11176E+00 3.40701E+00 0.00000E+00
 -1      1023 2.10578E+00 3.14772E+00 0.00000E+00
 -1      1024 3.79240E+00 3.49654E+00 0.00000E+00
 -1      1025 3.35770E+00 2.72820E+00 0.00000E+00
 -1      1026 3.84631E+00 2.16353E+00 0.00000E+00
 -1      1027 3.16567E+00 2.07400E+00 0.00000E+00
 -1      1028 2.04251E+00 6.75678E+00 0.00000E+00
 -1      1029 2.42513E+00 6.12539E+00 0.00000E+00
 -1      1030 3.04603E+00 5.46315E+00 0.00000E+00
 -1      1031 3.27618E+00 6.48945E+00 0.00000E+00
 -1      1032 2.11611E+00 7.77917E+00 0.00000E+00
 -1      1033 2.62237E+00 8.11613E+00 0.00000E+00
 -1      1034 1.78736E+00 7.28112E+00 0.00000E+00
 -1      1035 3.94850E+00 7.79740E+00 0.00000E+00
 -1      1036 3.41006E+00 7.12745E+00 0.00000E+00
 -1      1037 3.19372E+00 7.82164E+00 0.00000E+00
 -1      1038 4.03096E+00 6.46520E+00 0.00000E+00
 -1      1039 6.06434E+00 2.49755E+00 0.00000E+00
 -1      1040 6.73248E+00 2.17510E+00 0.00000E+00
 -1      1041 5.15695E+00 2.88265E+00 0.00000E+00
 -1      1042 6.16182E+00 3.20851E+00 0.00000E+00
 -1      1043 7.75602E+00 2.18391E+00 0.00000E+00
 -1      1044 8.07489E+00 2.70643E+00 0.00000E+00
 -1      1045 7.23989E+00 1.87142E+00 0.00000E+00
 -1      1046 7.46674E+00 4.02127E+00 0.00000E+00
 -1      1047 7.75430E+00 3.27492E+00 0.00000E+00
 -1      1048 6.78166E+00 3.56976E+00 0.00000E+00
 -1      1049 7.81922E+00 7.80480E+00 0.00000E+00
 -1      1050 8.21367E+00 7.36425E+00 0.00000E+00
 -1      1051 7.37818E+00 8.16489E+00 0.00000E+00
 -1      1052 6.01080E+00 7.49994E+00 0.00000E+00
 -1      1053 6.87126E+00 7.89557E+00 0.00000E+00
 -1      1054 6.48631E+00 6.92231E+00 0.00000E+00
 -1      1055 7.08780E+00 6.57495E+00 0.00000E+00
 -1      1056 7.65101E+00 6.11385E+00 0.00000E+00
 -1      1057 7.90999E+00 6.85684E+00 0.00000E+00
 -1      1058 2.87071E+00 4.63722E+00 0.00000E+00
 -1      1059 4.54890E+00 2.49471E+00 0.00000E+00
 -1      1060 4.64638E+00 3.20567E+00 0.00000E+00
 -1      1061 5.31293E+00 7.16215E+00 0.00000E+00
 -1      1062 4.89535E+00 6.81494E+00 0.00000E+00
 -1      1063 4.58242E+00 7.45041E+00 0.00000E+00
 -1      1064 7.14586E+00 4.65805E+00 0.00000E+00
 -1      1065 7.31322E+00 5.41598E+00 0.00000E+00
 -1      1066 4.98880E+00 5.05507E+00 1.00000E+01
 -1      1067 7.29089E+00 2.67113E+00 1.00000E+01
 -1      1068 2.67113E+00 2.70911E+00 1.00000E+01
 -1      1069 2.68206E+00 7.34678E+00 1.00000E+01
 -1      1070 7.34678E+00 7.31794E+00 1.00000E+01
 -1      1071 2.12873E+00 5.00858E+00 1.00000E+01
 -1      1072 4.99142E+00 2.12873E+00 1.00000E+01
 -1      1073 7.79762E+00 5.00000E+00 1.00000E+01
 -1      1074 5.00000E+00 7.79762E+00 1.00000E+01
 -1      1075 8.29167E+00 8.29167E+00 1.00000E+01
 -1      1076 8.35637E+00 1.64198E+00 1.00000E+01
 -1      1077 1.70833E+00 8.29167E+00 1.00000E+01
 -1      1078 1.64198E+00 1.64363E+00 1.00000E+01
 -1      1079 6.55389E+00 4.29217E+00 1.00000E+01
 -1      1080 3.14018E+00 5.84469E+00 1.00000E+01
 -1      1081 4.27152E+00 3.45496E+00 1.00000E+01
 -1      1082 5.78803E+00 6.88410E+00 1.00000E+01
 -1      1083 8.47320E+00 6.39574E+00 1.00000E+01
 -1      1084 6.34531E+00 8.48366E+00 1.00000E+01
 -1      1085 1.52680E+00 6.39574E+00 1.00000E+01
 -1      1086 6.39574E+00 1.52680E+00 1.00000E+01
 -1      1087 1.52680E+00 3.60426E+00 1.00000E+01
 -1      1088 3.65768E+00 1.52903E+00 1.00000E+01
 -1      1089 8.46816E+00 3.65894E+00 1.00000E+01
 -1      1090 3.60426E+00 8.47320E+00 1.00000E+01
 -1      1091 3.18562E+00 4.32336E+00 1.00000E+01
 -1      1092 4.20055E+00 6.90024E+00 1.00000E+01
 -1      1093 6.82472E+00 5.82417E+00 1.00000E+01
 -1      1094 5.65964E+00 3.26579E+00 1.00000E+01
 -1      1095 2.58945E+00 9.08057E+00 1.00000E+01
 -1      1096 9.08057E+00 2.58945E+00 1.00000E+01
 -1      1097 9.84134E-01 2.58996E+00 1.00000E+01
 -1      1098 2.58945E+00 9.19435E-01 1.00000E+01
 -1      1099 7.41004E+00 9.84134E-01 1.00000E+01
 -1      1100 9.88157E-01 7.40958E+00 1.00000E+01
 -1      1101 9.08057E+00 7.41055E+00 1.00000E+01
 -1      1102 7.41055E+00 9.08057E+00 1.00000E+01
 -1      1103 8.58570E-01 9.14143E+00 1.00000E+01
 -1      1104 9.17243E+00 8.27163E-01 1.00000E+01
 -1      1105 9.13387E+00 9.13387E+00 1.00000E+01
 -1      1106 8.27163E-01 8.27575E-01 1.00000E+01
 -1      1107 4.13581E-01 4.13787E-01 1.00000E+01
 -1      1108 4.13581E-01 1.24712E+00 1.00000E+01
 -1      1109 1.24691E+00 4.13787E-01 1.00000E+01
 -1      1110 4.29285E-01 8.73738E+00 1.00000E+01
 -1      1111 4.29285E-01 9.57071E+00 1.00000E+01
 -1      1112 1.26262E+00 9.57071E+00 1.00000E+01
 -1      1113 9.58621E+00 1.24691E+00 1.00000E+01
 -1      1114 9.58621E+00 4.13581E-01 1.00000E+01
 -1      1115 8.75288E+00 4.13581E-01 1.00000E+01
 -1      1116 9.56693E+00 9.56693E+00 1.00000E+01
 -1      1117 9.56693E+00 8.73360E+00 1.00000E+01
 -1      1118 8.73360E+00 9.56693E+00 1.00000E+01
 -1      1119 4.92067E-01 2.12831E+00 1.00000E+01
 -1      1120 4.92067E-01 2.96164E+00 1.00000E+01
 -1      1121 8.20992E-01 1.65515E+00 1.00000E+01
 -1      1122 1.31306E+00 2.11679E+00 1.00000E+01
 -1      1123 1.23457E+00 1.23560E+00 1.00000E+01
 -1      1124 7.63399E-01 3.46879E+00 1.00000E+01
 -1      1125 7.63399E-01 4.30213E+00 1.00000E+01
 -1      1126 1.25547E+00 3.09711E+00 1.00000E+01
 -1      1127 7.63399E-01 5.69787E+00 1.00000E+01
 -1      1128 7.63399E-01 6.53121E+00 1.00000E+01
 -1      1129 1.06437E+00 5.00429E+00 1.00000E+01
 -1      1130 1.82777E+00 5.70216E+00 1.00000E+01
 -1      1131 1.82777E+00 4.30642E+00 1.00000E+01
 -1      1132 4.94079E-01 7.03813E+00 1.00000E+01
 -1      1133 4.94079E-01 7.87146E+00 1.00000E+01
 -1      1134 1.25748E+00 6.90266E+00 1.00000E+01
 -1      1135 1.34825E+00 7.85063E+00 1.00000E+01
 -1      1136 8.54167E-01 8.31250E+00 1.00000E+01
 -1      1137 1.28345E+00 8.71655E+00 1.00000E+01
 -1      1138 9.54028E+00 2.96139E+00 1.00000E+01
 -1      1139 9.54028E+00 2.12806E+00 1.00000E+01
 -1      1140 8.71847E+00 2.11572E+00 1.00000E+01
 -1      1141 9.17818E+00 1.65433E+00 1.00000E+01
 -1      1142 8.76440E+00 1.23457E+00 1.00000E+01
 -1      1143 9.23408E+00 4.32947E+00 1.00000E+01
 -1      1144 9.23408E+00 3.49614E+00 1.00000E+01
 -1      1145 8.77436E+00 3.12420E+00 1.00000E+01
 -1      1146 9.23660E+00 6.53121E+00 1.00000E+01
 -1      1147 9.23660E+00 5.69787E+00 1.00000E+01
 -1      1148 8.13541E+00 5.69787E+00 1.00000E+01
 -1      1149 8.89881E+00 5.00000E+00 1.00000E+01
 -1      1150 8.13289E+00 4.32947E+00 1.00000E+01
 -1      1151 9.54028E+00 7.87194E+00 1.00000E+01
 -1      1152 9.54028E+00 7.03861E+00 1.00000E+01
 -1      1153 8.77688E+00 6.90315E+00 1.00000E+01
 -1      1154 9.14583E+00 8.31250E+00 1.00000E+01
 -1      1155 8.68612E+00 7.85111E+00 1.00000E+01
 -1      1156 8.71277E+00 8.71277E+00 1.00000E+01
 -1      1157 2.96139E+00 4.59717E-01 1.00000E+01
 -1      1158 2.12806E+00 4.59717E-01 1.00000E+01
 -1      1159 2.11572E+00 1.28153E+00 1.00000E+01
 -1      1160 1.65433E+00 8.21816E-01 1.00000E+01
 -1      1161 4.32884E+00 7.64515E-01 1.00000E+01
 -1      1162 3.49550E+00 7.64515E-01 1.00000E+01
 -1      1163 3.12356E+00 1.22423E+00 1.00000E+01
 -1      1164 6.53121E+00 7.63399E-01 1.00000E+01
 -1      1165 5.69787E+00 7.63399E-01 1.00000E+01
 -1      1166 5.69358E+00 1.82777E+00 1.00000E+01
 -1      1167 4.99571E+00 1.06437E+00 1.00000E+01
 -1      1168 4.32455E+00 1.82888E+00 1.00000E+01
 -1      1169 7.87169E+00 4.92067E-01 1.00000E+01
 -1      1170 7.03836E+00 4.92067E-01 1.00000E+01
 -1      1171 6.90289E+00 1.25547E+00 1.00000E+01
 -1      1172 8.34485E+00 8.20992E-01 1.00000E+01
 -1      1173 7.88321E+00 1.31306E+00 1.00000E+01
 -1      1174 2.12806E+00 9.54028E+00 1.00000E+01
 -1      1175 2.96139E+00 9.54028E+00 1.00000E+01
 -1      1176 1.68750E+00 9.14583E+00 1.00000E+01
 -1      1177 2.14889E+00 8.68612E+00 1.00000E+01
 -1      1178 3.46879E+00 9.23660E+00 1.00000E+01
 -1      1179 4.30213E+00 9.23660E+00 1.00000E+01
 -1      1180 3.09685E+00 8.77688E+00 1.00000E+01
 -1      1181 5.67266E+00 9.24183E+00 1.00000E+01
 -1      1182 6.50599E+00 9.24183E+00 1.00000E+01
 -1      1183 5.00000E+00 8.89881E+00 1.00000E+01
 -1      1184 5.67266E+00 8.14064E+00 1.00000E+01
 -1      1185 4.30213E+00 8.13541E+00 1.00000E+01
 -1      1186 7.03861E+00 9.54028E+00 1.00000E+01
 -1      1187 7.87194E+00 9.54028E+00 1.00000E+01
 -1      1188 6.87793E+00 8.78211E+00 1.00000E+01
 -1      1189 7.85111E+00 8.68612E+00 1.00000E+01
 -1      1190 8.31250E+00 9.14583E+00 1.00000E+01
 -1      1191 5.77135E+00 4.67362E+00 1.00000E+01
 -1      1192 6.68931E+00 5.05817E+00 1.00000E+01
 -1      1193 5.90676E+00 5.43962E+00 1.00000E+01
 -1      1194 5.32422E+00 4.16043E+00 1.00000E+01
 -1      1195 6.10677E+00 3.77898E+00 1.00000E+01
 -1      1196 4.06449E+00 5.44988E+00 1.00000E+01
 -1      1197 3.16290E+00 5.08402E+00 1.00000E+01
 -1      1198 4.08721E+00 4.68922E+00 1.00000E+01
 -1      1199 4.59468E+00 5.97766E+00 1.00000E+01
 -1      1200 3.67037E+00 6.37247E+00 1.00000E+01
 -1      1201 3.72857E+00 3.88916E+00 1.00000E+01
 -1      1202 4.63016E+00 4.25501E+00 1.00000E+01
 -1      1203 4.96558E+00 3.36037E+00 1.00000E+01
 -1      1204 5.38841E+00 5.96959E+00 1.00000E+01
 -1      1205 4.99429E+00 6.89217E+00 1.00000E+01
 -1      1206 6.30638E+00 6.35414E+00 1.00000E+01
 -1      1207 8.18573E+00 2.63029E+00 1.00000E+01
 -1      1208 7.82363E+00 2.15656E+00 1.00000E+01
 -1      1209 7.35047E+00 1.82763E+00 1.00000E+01
 -1      1210 7.87952E+00 3.16504E+00 1.00000E+01
 -1      1211 7.51103E+00 3.97556E+00 1.00000E+01
 -1      1212 6.92239E+00 3.48165E+00 1.00000E+01
 -1      1213 6.47526E+00 2.96846E+00 1.00000E+01
 -1      1214 6.02769E+00 2.39629E+00 1.00000E+01
 -1      1215 6.84332E+00 2.09896E+00 1.00000E+01
 -1      1216 2.15656E+00 2.17637E+00 1.00000E+01
 -1      1217 1.82763E+00 2.64953E+00 1.00000E+01
 -1      1218 2.63029E+00 1.81427E+00 1.00000E+01
 -1      1219 3.16440E+00 2.11907E+00 1.00000E+01
 -1      1220 3.96460E+00 2.49199E+00 1.00000E+01
 -1      1221 3.47132E+00 3.08203E+00 1.00000E+01
 -1      1222 2.92837E+00 3.51623E+00 1.00000E+01
 -1      1223 2.35621E+00 3.96381E+00 1.00000E+01
 -1      1224 2.09896E+00 3.15668E+00 1.00000E+01
 -1      1225 2.19520E+00 7.81922E+00 1.00000E+01
 -1      1226 2.63575E+00 8.21367E+00 1.00000E+01
 -1      1227 1.83511E+00 7.37818E+00 1.00000E+01
 -1      1228 2.10443E+00 6.87126E+00 1.00000E+01
 -1      1229 2.33349E+00 6.12022E+00 1.00000E+01
 -1      1230 2.91112E+00 6.59573E+00 1.00000E+01
 -1      1231 3.44131E+00 7.12351E+00 1.00000E+01
 -1      1232 3.90241E+00 7.68672E+00 1.00000E+01
 -1      1233 3.14316E+00 7.90999E+00 1.00000E+01
 -1      1234 7.81922E+00 7.80480E+00 1.00000E+01
 -1      1235 8.21367E+00 7.36425E+00 1.00000E+01
 -1      1236 7.37866E+00 8.19925E+00 1.00000E+01
 -1      1237 6.84604E+00 7.90080E+00 1.00000E+01
 -1      1238 6.06667E+00 7.68388E+00 1.00000E+01
 -1      1239 6.56740E+00 7.10102E+00 1.00000E+01
 -1      1240 7.08575E+00 6.57106E+00 1.00000E+01
 -1      1241 7.64896E+00 6.10996E+00 1.00000E+01
 -1      1242 7.90999E+00 6.85684E+00 1.00000E+01
 -1      1243 2.63446E+00 5.42663E+00 1.00000E+01
 -1      1244 2.65718E+00 4.66597E+00 1.00000E+01
 -1      1245 4.63147E+00 2.79184E+00 1.00000E+01
 -1      1246 5.32553E+00 2.69726E+00 1.00000E+01
 -1      1247 7.17576E+00 4.64608E+00 1.00000E+01
 -1      1248 7.31117E+00 5.41209E+00 1.00000E+01
 -1      1249 5.39401E+00 7.34086E+00 1.00000E+01
 -1      1250 4.60028E+00 7.34893E+00 1.00000E+01
 -1      1251 5.00000E+00 5.00000E+00 4.99449E+00
 -1      1252 6.32651E+00 7.60616E+00 7.57784E+00
 -1      1253 3.16690E+00 3.10817E+00 3.22114E+00
 -1      1254 2.98943E+00 6.26782E+00 6.58035E+00
 -1      1255 3.62618E+00 2.92768E+00 6.60475E+00
 -1      1256 6.95312E+00 3.34686E+00 6.97861E+00
 -1      1257 6.85326E+00 6.85326E+00 3.13892E+00
 -1      1258 3.93077E+00 6.77330E+00 2.96906E+00
 -1      1259 7.10770E+00 2.70138E+00 3.61416E+00
 -1      1260 3.56985E+00 7.56065E+00 7.56065E+00
 -1      1261 7.58499E+00 5.80165E+00 5.91850E+00
 -1      1262 5.12766E+00 4.65812E+00 2.44365E+00
 -1      1263 5.37812E+00 5.18463E+00 7.61818E+00
 -1      1264 5.03915E+00 7.49647E+00 5.32449E+00
 -1      1265 2.32817E+00 5.32832E+00 4.50359E+00
 -1      1266 5.00003E+00 2.50310E+00 5.28130E+00
 -1      1267 2.28051E+00 7.80105E+00 1.89513E+00
 -1      1268 2.19487E+00 2.14378E+00 1.87063E+00
 -1      1269 7.88640E+00 1.67055E+00 1.93077E+00
 -1      1270 7.52307E+00 7.69574E+00 5.20498E+00
 -1      1271 8.03236E+00 8.03236E+00 1.99095E+00
 -1      1272 2.21725E+00 2.08270E+00 7.76382E+00
 -1      1273 8.01368E+00 1.98632E+00 8.03751E+00
 -1      1274 2.19030E+00 2.35269E+00 5.00087E+00
 -1      1275 7.85446E+00 5.12437E+00 3.62842E+00
 -1      1276 4.91266E+00 2.30027E+00 8.05816E+00
 -1      1277 2.01851E+00 5.00001E+00 6.61217E+00
 -1      1278 2.45799E+00 7.94977E+00 4.71594E+00
 -1      1279 2.22585E+00 4.98647E+00 1.98587E+00
 -1      1280 5.24025E+00 2.41580E+00 2.20679E+00
 -1      1281 1.55571E+00 7.68790E+00 7.27332E+00
 -1      1282 8.12451E+00 7.86627E+00 7.90620E+00
 -1      1283 7.88030E+00 5.01231E+00 8.12704E+00
 -1      1284 8.05825E+00 3.48874E+00 5.18754E+00
 -1      1285 1.28713E+00 8.72022E+00 8.72022E+00
 -1      1286 5.21802E+00 7.85352E+00 2.14671E+00
 -1      1287 3.30980E+00 4.43236E+00 8.20759E+00
 -1      1288 6.98748E+00 5.32529E+00 1.89932E+00
 -1      1289 8.80105E+00 8.92796E+00 8.77270E+00
 -1      1290 6.88917E+00 1.86652E+00 5.10510E+00
 -1      1291 7.89428E+00 3.59568E+00 2.02410E+00
 -1      1292 1.65533E+00 6.52844E+00 3.11434E+00
 -1      1293 1.07822E+00 8.75512E+00 1.21440E+00
 -1      1294 1.21006E+00 1.21006E+00 1.23774E+00
 -1      1295 2.68088E+00 2.62598E+00 2.54589E+00
 -1      1296 1.09743E+00 2.40746E+00 2.28987E+00
 -1      1297 1.58345E+00 2.88965E+00 2.96512E+00
 -1      1298 2.69637E+00 4.04732E+00 2.60350E+00
 -1      1299 1.11293E+00 3.82880E+00 2.34749E+00
 -1      1300 2.21036E+00 3.56513E+00 1.92825E+00
 -1      1301 2.82234E+00 3.96384E+00 6.60846E+00
 -1      1302 2.11788E+00 3.54136E+00 7.18799E+00
 -1      1303 2.92171E+00 2.50519E+00 7.18428E+00
 -1      1304 3.46799E+00 3.68002E+00 7.40617E+00
 -1      1305 2.76352E+00 3.25753E+00 7.98571E+00
 -1      1306 2.66416E+00 4.71618E+00 7.40988E+00
 -1      1307 3.11660E+00 2.48076E+00 9.35315E-01
 -1      1308 3.60262E+00 2.96295E+00 1.61057E+00
 -1      1309 4.20357E+00 2.76199E+00 2.71396E+00
 -1      1310 4.63930E+00 2.61677E+00 1.10339E+00
 -1      1311 3.71756E+00 2.27979E+00 2.03871E+00
 -1      1312 1.10862E+00 2.84348E+00 8.11851E+00
 -1      1313 1.00925E+00 4.30213E+00 7.54269E+00
 -1      1314 1.65490E+00 4.01831E+00 8.34040E+00
 -1      1315 4.46538E+00 5.88665E+00 3.98177E+00
 -1      1316 5.39201E+00 6.81328E+00 3.05399E+00
 -1      1317 5.92663E+00 5.92663E+00 4.06670E+00
 -1      1318 5.06383E+00 4.82906E+00 3.71907E+00
 -1      1319 5.99046E+00 5.75569E+00 2.79128E+00
 -1      1320 4.52921E+00 5.71571E+00 2.70635E+00
 -1      1321 8.42663E+00 6.62450E+00 2.33286E+00
 -1      1322 8.42663E+00 7.07208E+00 2.90503E+00
 -1      1323 9.01618E+00 7.66162E+00 2.33104E+00
 -1      1324 7.44281E+00 7.44281E+00 2.56494E+00
 -1      1325 9.01618E+00 7.21405E+00 1.75887E+00
 -1      1326 4.09282E+00 1.25155E+00 4.80233E+00
 -1      1327 4.08346E+00 2.80563E+00 4.25122E+00
 -1      1328 3.17626E+00 1.55408E+00 3.77225E+00
 -1      1329 2.68796E+00 1.17635E+00 4.66211E+00
 -1      1330 2.67860E+00 2.73043E+00 4.11101E+00
 -1      1331 3.59517E+00 2.42790E+00 5.14109E+00
 -1      1332 5.94621E+00 7.17487E+00 4.23170E+00
 -1      1333 5.01957E+00 6.24823E+00 5.15949E+00
 -1      1334 4.48496E+00 7.13488E+00 4.14677E+00
 -1      1335 2.92457E+00 1.82656E+00 9.35315E-01
 -1      1336 4.44726E+00 1.96257E+00 1.10339E+00
 -1      1337 1.58345E+00 3.68984E+00 3.33805E+00
 -1      1338 1.11293E+00 4.62899E+00 2.72041E+00
 -1      1339 7.63399E-01 3.60426E+00 9.23660E+00
 -1      1340 1.87202E+00 2.84348E+00 8.88191E+00
 -1      1341 2.41830E+00 4.01831E+00 9.10380E+00
 -1      1342 6.25645E+00 8.42663E+00 3.20235E+00
 -1      1343 6.70358E+00 8.42663E+00 3.71554E+00
 -1      1344 5.34939E+00 8.74823E+00 4.29514E+00
 -1      1345 5.79652E+00 8.74823E+00 4.80833E+00
 -1      1346 7.40698E+00 8.84787E+00 3.93805E+00
 -1      1347 7.18817E+00 7.27450E+00 4.17195E+00
 -1      1348 7.07208E+00 8.42663E+00 2.90503E+00
 -1      1349 7.66162E+00 9.01618E+00 2.33104E+00
 -1      1350 7.77772E+00 7.86405E+00 3.59796E+00
 -1      1351 1.09743E+00 2.90073E+00 1.69983E+00
 -1      1352 1.11293E+00 4.32207E+00 1.75745E+00
 -1      1353 5.43883E+00 8.92676E+00 2.70625E+00
 -1      1354 5.12858E+00 7.67500E+00 3.73560E+00
 -1      1355 6.03564E+00 7.35339E+00 2.64282E+00
 -1      1356 1.09515E+00 2.51191E+00 3.85499E+00
 -1      1357 2.19259E+00 2.24824E+00 3.43575E+00
 -1      1358 7.77856E-01 6.73797E+00 7.07871E+00
 -1      1359 7.77856E-01 7.01661E+00 7.87849E+00
 -1      1360 7.77856E-01 7.51734E+00 7.29563E+00
 -1      1361 4.31310E+00 2.71539E+00 5.94303E+00
 -1      1362 4.07011E+00 1.25155E+00 5.56300E+00
 -1      1363 3.38318E+00 1.46384E+00 6.22472E+00
 -1      1364 2.90824E+00 2.64018E+00 5.80281E+00
 -1      1365 2.66524E+00 1.17635E+00 5.42278E+00
 -1      1366 8.80762E+00 7.72201E-01 4.13581E-01
 -1      1367 9.18323E+00 4.01383E-01 4.13581E-01
 -1      1368 9.22141E+00 1.18578E+00 4.13787E-01
 -1      1369 9.59702E+00 8.14965E-01 4.13787E-01
 -1      1370 9.58621E+00 4.13581E-01 8.27369E-01
 -1      1371 2.50397E+00 5.63391E+00 6.59626E+00
 -1      1372 3.50925E+00 5.00000E+00 5.80333E+00
 -1      1373 3.99471E+00 5.63391E+00 5.78742E+00
 -1      1374 3.14962E+00 5.35009E+00 7.39397E+00
 -1      1375 4.15490E+00 4.71618E+00 6.60104E+00
 -1      1376 3.68366E+00 6.41239E+00 4.91404E+00
 -1      1377 2.65880E+00 5.79807E+00 5.54197E+00
 -1      1378 4.01429E+00 6.88214E+00 5.95242E+00
 -1      1379 3.74857E+00 7.72312E+00 5.02021E+00
 -1      1380 2.72371E+00 7.10879E+00 5.64815E+00
 -1      1381 2.39308E+00 6.63904E+00 4.60976E+00
 -1      1382 8.92723E+00 5.76006E+00 2.57761E+00
 -1      1383 7.35386E+00 5.98882E+00 3.38367E+00
 -1      1384 8.49374E+00 5.86052E+00 1.71306E+00
 -1      1385 6.92037E+00 6.08927E+00 2.51912E+00
 -1      1386 7.42097E+00 5.22483E+00 2.76387E+00
 -1      1387 3.66409E+00 5.16416E+00 4.74904E+00
 -1      1388 3.71921E+00 1.55408E+00 3.33805E+00
 -1      1389 4.63577E+00 1.25155E+00 4.36813E+00
 -1      1390 3.22268E+00 7.45213E+00 9.47566E-01
 -1      1391 3.10564E+00 7.28717E+00 2.43209E+00
 -1      1392 4.04780E+00 6.93825E+00 1.48453E+00
 -1      1393 4.69143E+00 7.47836E+00 1.07336E+00
 -1      1394 4.57439E+00 7.31341E+00 2.55788E+00
 -1      1395 3.74926E+00 7.82729E+00 2.02092E+00
 -1      1396 5.00001E+00 3.75155E+00 5.13790E+00
 -1      1397 4.08345E+00 4.05408E+00 4.10781E+00
 -1      1398 3.59515E+00 3.67635E+00 4.99768E+00
 -1      1399 4.31309E+00 3.96384E+00 5.79962E+00
 -1      1400 7.99561E+00 8.84787E+00 4.43196E+00
 -1      1401 8.25026E+00 9.01618E+00 2.82495E+00
 -1      1402 3.00633E+00 8.14632E+00 9.47566E-01
 -1      1403 4.47508E+00 8.17256E+00 1.07336E+00
 -1      1404 6.37058E+00 1.67343E+00 6.93135E+00
 -1      1405 5.97658E+00 2.92498E+00 6.12996E+00
 -1      1406 5.39403E+00 1.25155E+00 6.08270E+00
 -1      1407 5.35034E+00 1.15014E+00 7.47113E+00
 -1      1408 4.95634E+00 2.40168E+00 6.66973E+00
 -1      1409 5.93289E+00 2.82356E+00 7.51838E+00
 -1      1410 7.55403E+00 6.74869E+00 5.56174E+00
 -1      1411 6.92479E+00 7.65095E+00 6.39141E+00
 -1      1412 6.95575E+00 6.70390E+00 6.74817E+00
 -1      1413 7.85475E+00 6.83396E+00 6.91235E+00
 -1      1414 7.22551E+00 7.73621E+00 7.74202E+00
 -1      1415 7.82379E+00 7.78100E+00 6.55559E+00
 -1      1416 4.60029E+00 1.25155E+00 6.09077E+00
 -1      1417 3.91337E+00 1.46384E+00 6.75249E+00
 -1      1418 4.55661E+00 1.15014E+00 7.47920E+00
 -1      1419 4.26942E+00 2.61397E+00 7.33145E+00
 -1      1420 4.51237E+00 5.24266E+00 1.22183E+00
 -1      1421 3.91393E+00 6.30025E+00 1.48453E+00
 -1      1422 3.06147E+00 5.40684E+00 9.92933E-01
 -1      1423 3.07831E+00 5.87988E+00 2.47746E+00
 -1      1424 3.67676E+00 4.82229E+00 2.21476E+00
 -1      1425 2.74753E+00 4.21824E+00 3.86236E+00
 -1      1426 2.25924E+00 3.84051E+00 4.75223E+00
 -1      1427 1.00925E+00 5.67266E+00 7.54791E+00
 -1      1428 1.00925E+00 5.39402E+00 6.74814E+00
 -1      1429 1.78711E+00 6.34396E+00 6.94274E+00
 -1      1430 6.48155E+00 5.49314E+00 6.76834E+00
 -1      1431 5.85231E+00 6.39540E+00 7.59801E+00
 -1      1432 5.68283E+00 7.55131E+00 6.45116E+00
 -1      1433 5.20863E+00 6.34055E+00 6.47134E+00
 -1      1434 6.31207E+00 6.64906E+00 5.62149E+00
 -1      1435 7.63399E-01 7.63399E-01 6.39574E+00
 -1      1436 1.10862E+00 1.80475E+00 7.07978E+00
 -1      1437 1.87202E+00 1.04135E+00 7.07978E+00
 -1      1438 1.85855E+00 1.17635E+00 5.69831E+00
 -1      1439 2.20377E+00 2.21770E+00 6.38234E+00
 -1      1440 1.09515E+00 1.93975E+00 5.69831E+00
 -1      1441 4.47398E+00 6.37264E+00 7.58942E+00
 -1      1442 4.94818E+00 7.58341E+00 7.56924E+00
 -1      1443 4.30450E+00 7.52856E+00 6.44257E+00
 -1      1444 4.75589E+00 1.20790E+00 2.83087E+00
 -1      1445 5.12014E+00 2.45945E+00 3.74405E+00
 -1      1446 5.97656E+00 4.17343E+00 5.98655E+00
 -1      1447 6.52912E+00 4.24437E+00 5.09101E+00
 -1      1448 6.52914E+00 2.99592E+00 5.23442E+00
 -1      1449 7.50568E+00 3.41780E+00 6.08307E+00
 -1      1450 8.60254E+00 8.93313E+00 7.65838E+00
 -1      1451 9.06225E+00 8.47342E+00 7.65838E+00
 -1      1452 9.54028E+00 9.54028E+00 7.41055E+00
 -1      1453 8.94081E+00 9.46398E+00 8.09163E+00
 -1      1454 9.40053E+00 9.00426E+00 8.09163E+00
 -1      1455 8.46278E+00 8.39711E+00 8.33945E+00
 -1      1456 1.16409E+00 6.07652E+00 5.16388E+00
 -1      1457 1.16409E+00 5.94111E+00 4.39788E+00
 -1      1458 1.22900E+00 7.25183E+00 4.50405E+00
 -1      1459 1.22900E+00 7.38724E+00 5.27006E+00
 -1      1460 5.18906E+00 5.09232E+00 6.30633E+00
 -1      1461 4.18377E+00 5.72623E+00 7.09927E+00
 -1      1462 4.34396E+00 4.80850E+00 7.91289E+00
 -1      1463 5.66326E+00 8.80308E+00 7.68773E+00
 -1      1464 5.66326E+00 7.70189E+00 8.78892E+00
 -1      1465 5.00000E+00 8.89881E+00 8.89881E+00
 -1      1466 4.28493E+00 8.78033E+00 7.67914E+00
 -1      1467 4.28493E+00 7.67914E+00 8.78033E+00
 -1      1468 7.48340E+00 2.66659E+00 7.50806E+00
 -1      1469 7.65228E+00 2.32873E+00 9.01876E+00
 -1      1470 7.12201E+00 3.00899E+00 8.48930E+00
 -1      1471 6.10177E+00 2.48570E+00 9.02908E+00
 -1      1472 6.46317E+00 2.14330E+00 8.04784E+00
 -1      1473 5.19104E+00 4.12587E+00 1.22183E+00
 -1      1474 4.58300E+00 3.73792E+00 1.22183E+00
 -1      1475 5.18396E+00 3.53696E+00 2.32522E+00
 -1      1476 5.24734E+00 3.00471E+00 1.10339E+00
 -1      1477 6.37053E+00 7.63399E-01 9.24183E+00
 -1      1478 7.20471E+00 1.75656E+00 9.01876E+00
 -1      1479 7.17949E+00 9.93162E-01 8.26059E+00
 -1      1480 5.62898E+00 1.15014E+00 8.27091E+00
 -1      1481 5.65420E+00 1.91353E+00 9.02908E+00
 -1      1482 2.91075E+00 1.04135E+00 8.11851E+00
 -1      1483 2.93746E+00 1.80587E+00 8.88191E+00
 -1      1484 3.63097E+00 7.64515E-01 9.23660E+00
 -1      1485 4.25846E+00 1.15014E+00 8.26568E+00
 -1      1486 4.28517E+00 1.91465E+00 9.02908E+00
 -1      1487 3.56495E+00 2.19149E+00 7.91099E+00
 -1      1488 6.29249E+00 5.40082E+00 5.45649E+00
 -1      1489 7.21912E+00 6.32746E+00 4.52871E+00
 -1      1490 5.18907E+00 3.84387E+00 6.44974E+00
 -1      1491 4.50215E+00 4.05615E+00 7.11146E+00
 -1      1492 5.14539E+00 3.74245E+00 7.83817E+00
 -1      1493 6.05387E+00 2.60224E+00 4.44773E+00
 -1      1494 6.05385E+00 3.85069E+00 4.30432E+00
 -1      1495 7.58297E+00 3.09506E+00 4.40085E+00
 -1      1496 3.12947E+00 6.05081E+00 3.73632E+00
 -1      1497 3.19438E+00 7.36153E+00 3.84250E+00
 -1      1498 7.03848E+00 8.84787E+00 4.74857E+00
 -1      1499 6.90085E+00 9.93162E-01 7.46081E+00
 -1      1500 7.68023E+00 9.93162E-01 7.67773E+00
 -1      1501 9.23408E+00 3.63160E+00 9.23660E+00
 -1      1502 9.00684E+00 2.79529E+00 8.25536E+00
 -1      1503 8.24092E+00 2.82263E+00 9.01876E+00
 -1      1504 8.17423E+00 4.33563E+00 9.06352E+00
 -1      1505 7.94699E+00 3.49932E+00 8.08228E+00
 -1      1506 8.94015E+00 4.30828E+00 8.30012E+00
 -1      1507 2.44965E+00 1.04135E+00 7.55530E+00
 -1      1508 3.20890E+00 1.04135E+00 7.33203E+00
 -1      1509 2.43597E+00 2.39123E+00 9.35315E-01
 -1      1510 9.58621E+00 8.20992E-01 1.23540E+00
 -1      1511 9.22141E+00 1.59319E+00 8.21816E-01
 -1      1512 5.17284E+00 6.25582E+00 2.29518E+00
 -1      1513 3.27964E+00 6.91424E+00 7.07050E+00
 -1      1514 2.67871E+00 1.04135E+00 6.80425E+00
 -1      1515 5.06384E+00 3.58061E+00 3.86248E+00
 -1      1516 4.14728E+00 3.88314E+00 2.83239E+00
 -1      1517 6.28111E+00 7.59610E+00 5.26473E+00
 -1      1518 8.55385E+00 2.11409E+00 3.60921E+00
 -1      1519 7.78793E+00 1.35069E+00 3.63655E+00
 -1      1520 9.23408E+00 7.63399E-01 3.63160E+00
 -1      1521 8.44458E+00 1.69666E+00 4.35468E+00
 -1      1522 7.67866E+00 9.33260E-01 4.38202E+00
 -1      1523 6.99844E+00 2.28395E+00 4.35963E+00
 -1      1524 4.33706E+00 4.41673E+00 1.22183E+00
 -1      1525 8.27664E-01 6.54117E+00 3.70325E+00
 -1      1526 1.99175E+00 5.92838E+00 3.80896E+00
 -1      1527 2.05666E+00 7.23911E+00 3.91514E+00
 -1      1528 8.17728E+00 8.35274E-01 2.79486E+00
 -1      1529 8.94320E+00 1.59867E+00 2.76751E+00
 -1      1530 7.49705E+00 2.18596E+00 2.77247E+00
 -1      1531 9.23660E+00 7.63399E-01 6.39574E+00
 -1      1532 8.24344E+00 9.93162E-01 7.21663E+00
 -1      1533 9.00684E+00 1.75656E+00 7.21663E+00
 -1      1534 8.44458E+00 1.69666E+00 5.75042E+00
 -1      1535 7.45142E+00 1.92642E+00 6.57131E+00
 -1      1536 7.68118E+00 9.33260E-01 5.75042E+00
 -1      1537 1.14025E+00 8.13461E+00 2.77704E+00
 -1      1538 2.36925E+00 7.87541E+00 3.30554E+00
 -1      1539 1.22900E+00 8.20896E+00 4.18744E+00
 -1      1540 8.27664E-01 7.49830E+00 3.38664E+00
 -1      1541 1.96792E+00 7.16475E+00 2.50473E+00
 -1      1542 7.26905E+00 4.57425E+00 6.44855E+00
 -1      1543 8.79249E+00 5.00110E+00 6.40937E+00
 -1      1544 8.47656E+00 3.77371E+00 6.93942E+00
 -1      1545 9.02912E+00 3.84465E+00 6.04389E+00
 -1      1546 7.82162E+00 4.64519E+00 5.55302E+00
 -1      1547 6.11768E+00 3.67975E+00 3.02891E+00
 -1      1548 6.17398E+00 2.55859E+00 2.91047E+00
 -1      1549 2.17334E+00 5.16416E+00 5.55788E+00
 -1      1550 6.49106E+00 4.89124E+00 3.03603E+00
 -1      1551 6.42723E+00 5.06218E+00 4.31145E+00
 -1      1552 3.72792E+00 4.99322E+00 3.47362E+00
 -1      1553 2.44419E+00 2.39591E+00 8.88191E+00
 -1      1554 3.79189E+00 2.50469E+00 9.02908E+00
 -1      1555 8.55385E+00 2.68625E+00 3.16164E+00
 -1      1556 8.94320E+00 2.17084E+00 2.31994E+00
 -1      1557 1.16409E+00 4.79992E+00 3.97927E+00
 -1      1558 2.27701E+00 5.15739E+00 3.24473E+00
 -1      1559 4.65533E+00 8.74823E+00 4.38972E+00
 -1      1560 4.10114E+00 8.38665E+00 3.21201E+00
 -1      1561 4.74477E+00 8.92676E+00 2.80083E+00
 -1      1562 5.81088E+00 4.48711E+00 1.22183E+00
 -1      1563 6.74079E+00 4.82070E+00 9.49662E-01
 -1      1564 6.05757E+00 4.99170E+00 2.17149E+00
 -1      1565 6.51097E+00 4.12690E+00 2.23387E+00
 -1      1566 7.44088E+00 4.46048E+00 1.96171E+00
 -1      1567 7.19420E+00 3.95590E+00 1.01205E+00
 -1      1568 6.28240E+00 7.58573E+00 1.07336E+00
 -1      1569 7.10002E+00 7.08560E+00 1.56946E+00
 -1      1570 7.16713E+00 6.32161E+00 9.49662E-01
 -1      1571 6.10275E+00 6.58941E+00 2.02302E+00
 -1      1572 6.34531E+00 9.24183E+00 9.24183E+00
 -1      1573 5.67266E+00 9.24183E+00 8.89881E+00
 -1      1574 6.33591E+00 8.04491E+00 8.78892E+00
 -1      1575 6.33591E+00 8.80308E+00 8.03075E+00
 -1      1576 1.06437E+00 4.30642E+00 9.23660E+00
 -1      1577 2.71927E+00 4.72047E+00 9.10380E+00
 -1      1578 8.47656E+00 3.01446E+00 7.16269E+00
 -1      1579 9.02912E+00 3.08540E+00 6.26716E+00
 -1      1580 5.32983E+00 1.25155E+00 4.27355E+00
 -1      1581 5.44995E+00 1.20790E+00 2.73629E+00
 -1      1582 3.65598E+00 7.54668E-01 7.64515E-01
 -1      1583 2.92627E+00 1.07189E+00 1.69983E+00
 -1      1584 4.44897E+00 1.20790E+00 1.86791E+00
 -1      1585 5.86718E+00 3.36596E+00 1.10339E+00
 -1      1586 6.56727E+00 3.00574E+00 2.11544E+00
 -1      1587 1.86083E+00 1.07189E+00 2.73744E+00
 -1      1588 1.09743E+00 1.83529E+00 2.73744E+00
 -1      1589 7.63399E-01 7.63399E-01 3.60426E+00
 -1      1590 1.85855E+00 1.17635E+00 4.30256E+00
 -1      1591 1.09515E+00 1.93975E+00 4.30256E+00
 -1      1592 6.25445E+00 8.92676E+00 2.40892E+00
 -1      1593 7.19930E+00 1.35069E+00 3.14265E+00
 -1      1594 7.58864E+00 8.35274E-01 2.30095E+00
 -1      1595 8.94015E+00 4.60643E+00 7.51364E+00
 -1      1596 7.41671E+00 4.17958E+00 7.55282E+00
 -1      1597 7.73264E+00 5.40698E+00 7.02277E+00
 -1      1598 7.10340E+00 6.30923E+00 7.85244E+00
 -1      1599 8.00240E+00 6.43929E+00 8.01662E+00
 -1      1600 1.90365E+00 8.90053E+00 2.74969E+00
 -1      1601 7.63399E-01 9.23408E+00 3.63160E+00
 -1      1602 1.99240E+00 8.97488E+00 4.16010E+00
 -1      1603 7.71972E+00 5.46301E+00 4.77346E+00
 -1      1604 6.33860E+00 9.33260E-01 5.99460E+00
 -1      1605 6.92115E+00 2.60669E+00 6.04185E+00
 -1      1606 5.94460E+00 2.18481E+00 5.19320E+00
 -1      1607 7.48108E+00 3.91287E+00 3.62129E+00
 -1      1608 2.99047E+00 3.57073E+00 9.10380E+00
 -1      1609 2.91901E+00 1.55408E+00 2.96512E+00
 -1      1610 3.36476E+00 8.97488E+00 4.08545E+00
 -1      1611 2.47582E+00 8.90053E+00 2.30212E+00
 -1      1612 3.30095E+00 8.38665E+00 2.83908E+00
 -1      1613 2.56456E+00 8.97488E+00 3.71252E+00
 -1      1614 8.55385E+00 2.94350E+00 3.96876E+00
 -1      1615 6.62519E+00 7.94294E+00 2.06883E+00
 -1      1616 4.94079E-01 7.41007E+00 9.54028E+00
 -1      1617 4.94079E-01 6.87745E+00 9.24183E+00
 -1      1618 7.77856E-01 7.54923E+00 8.17694E+00
 -1      1619 1.27193E+00 7.54874E+00 8.63666E+00
 -1      1620 9.23408E+00 9.23408E+00 3.65894E+00
 -1      1621 8.76154E+00 8.08195E+00 4.43196E+00
 -1      1622 9.01618E+00 8.25026E+00 2.82495E+00
 -1      1623 5.37676E+00 5.59240E+00 1.22183E+00
 -1      1624 5.18292E+00 4.85236E+00 1.22183E+00
 -1      1625 6.16562E+00 4.26575E+00 7.29839E+00
 -1      1626 5.42193E+00 7.19010E+00 1.07336E+00
 -1      1627 6.30667E+00 5.92599E+00 9.49662E-01
 -1      1628 8.76154E+00 8.08447E+00 5.80036E+00
 -1      1629 8.76154E+00 7.52126E+00 6.26146E+00
 -1      1630 9.06225E+00 8.16973E+00 7.15097E+00
 -1      1631 9.06225E+00 7.60652E+00 7.61207E+00
 -1      1632 9.02912E+00 3.31446E+00 5.51611E+00
 -1      1633 9.02912E+00 2.50777E+00 5.79164E+00
 -1      1634 9.54028E+00 9.23660E+00 6.90315E+00
 -1      1635 6.43564E-01 8.06539E+00 8.90039E+00
 -1      1636 1.42142E+00 8.20406E+00 7.99677E+00
 -1      1637 1.13764E+00 8.06490E+00 9.36011E+00
 -1      1638 7.68957E+00 7.67515E+00 9.95476E-01
 -1      1639 7.99814E+00 8.84787E+00 5.80036E+00
 -1      1640 9.23660E+00 9.23660E+00 6.39574E+00
 -1      1641 8.29885E+00 8.93313E+00 7.15097E+00
 -1      1642 4.59209E+00 2.87761E+00 9.02908E+00
 -1      1643 4.11123E+00 3.36632E+00 8.13288E+00
 -1      1644 3.79066E+00 3.94366E+00 9.10380E+00
 -1      1645 7.11797E+00 9.33260E-01 6.21152E+00
 -1      1646 6.75351E+00 3.81951E+00 8.48930E+00
 -1      1647 5.96600E+00 4.73840E+00 8.80909E+00
 -1      1648 7.21710E+00 4.65224E+00 9.06352E+00
 -1      1649 6.62921E+00 5.09847E+00 7.87261E+00
 -1      1650 6.83664E+00 8.80308E+00 7.44789E+00
 -1      1651 7.23491E+00 8.93313E+00 8.19493E+00
 -1      1652 7.73564E+00 8.93313E+00 7.61207E+00
 -1      1653 7.67242E-01 3.65722E+00 7.64515E-01
 -1      1654 1.86468E+00 2.90028E+00 9.35315E-01
 -1      1655 1.88017E+00 4.32162E+00 9.92933E-01
 -1      1656 6.85694E+00 9.33260E-01 5.46463E+00
 -1      1657 7.47371E+00 2.67763E+00 5.14632E+00
 -1      1658 3.35668E+00 3.64176E+00 1.61057E+00
 -1      1659 2.88616E+00 4.58091E+00 9.92933E-01
 -1      1660 6.57561E+00 8.80308E+00 6.70100E+00
 -1      1661 6.05727E+00 8.80308E+00 7.23097E+00
 -1      1662 5.93193E+00 8.74823E+00 5.57433E+00
 -1      1663 5.41359E+00 8.74823E+00 6.10429E+00
 -1      1664 6.15474E+00 2.61961E+00 1.10339E+00
 -1      1665 7.48175E+00 3.20955E+00 1.01205E+00
 -1      1666 2.96909E+00 8.90053E+00 1.71208E+00
 -1      1667 3.69491E+00 9.24580E+00 7.64515E-01
 -1      1668 4.43785E+00 8.92676E+00 1.83787E+00
 -1      1669 8.94714E+00 3.13341E+00 2.36660E+00
 -1      1670 8.94714E+00 3.39065E+00 3.17373E+00
 -1      1671 7.50099E+00 3.14853E+00 2.81913E+00
 -1      1672 7.89034E+00 2.63312E+00 1.97743E+00
 -1      1673 6.05727E+00 7.24513E+00 8.78892E+00
 -1      1674 6.57561E+00 6.71516E+00 8.78892E+00
 -1      1675 6.10142E+00 5.50440E+00 8.80909E+00
 -1      1676 5.58307E+00 6.03437E+00 8.80909E+00
 -1      1677 2.46790E+00 7.47637E+00 9.47566E-01
 -1      1678 7.23491E+00 8.17496E+00 8.95310E+00
 -1      1679 7.17390E+00 8.84787E+00 5.51457E+00
 -1      1680 9.23408E+00 4.92067E-01 3.12445E+00
 -1      1681 9.54028E+00 4.92067E-01 2.58970E+00
 -1      1682 8.48348E+00 8.35274E-01 2.26011E+00
 -1      1683 8.94320E+00 1.32734E+00 2.26036E+00
 -1      1684 2.15952E+00 1.17635E+00 5.00472E+00
 -1      1685 6.56333E+00 2.04318E+00 2.06878E+00
 -1      1686 7.47781E+00 2.24698E+00 9.65384E-01
 -1      1687 4.95633E+00 1.15014E+00 7.92789E+00
 -1      1688 7.63399E-01 6.37053E+00 9.24183E+00
 -1      1689 1.54126E+00 7.04182E+00 8.63666E+00
 -1      1690 8.92723E+00 5.05790E+00 2.87858E+00
 -1      1691 8.49374E+00 5.15836E+00 2.01403E+00
 -1      1692 5.01397E+00 8.74823E+00 5.18978E+00
 -1      1693 7.35251E+00 5.41824E+00 9.06352E+00
 -1      1694 1.16409E+00 5.15856E+00 4.77933E+00
 -1      1695 1.00925E+00 4.99440E+00 5.83362E+00
 -1      1696 1.00925E+00 5.91236E+00 6.21817E+00
 -1      1697 9.17818E+00 8.20992E-01 1.64281E+00
 -1      1698 8.39959E+00 7.72201E-01 8.20992E-01
 -1      1699 6.90815E+00 5.57862E+00 9.49662E-01
 -1      1700 4.99441E+00 1.25155E+00 5.16819E+00
 -1      1701 3.35502E+00 8.78033E+00 6.70267E+00
 -1      1702 3.12596E+00 8.78033E+00 7.45371E+00
 -1      1703 2.34795E+00 8.84395E+00 6.55900E+00
 -1      1704 2.11889E+00 8.84395E+00 7.31005E+00
 -1      1705 2.56278E+00 7.62428E+00 7.41699E+00
 -1      1706 9.02912E+00 2.80873E+00 5.09806E+00
 -1      1707 8.44458E+00 1.99763E+00 5.05684E+00
 -1      1708 8.92723E+00 5.39200E+00 3.44710E+00
 -1      1709 4.29784E+00 1.06437E+00 9.23660E+00
 -1      1710 4.95204E+00 2.21450E+00 9.02908E+00
 -1      1711 2.79909E+00 8.97488E+00 5.28031E+00
 -1      1712 3.01392E+00 7.75521E+00 6.13830E+00
 -1      1713 2.00685E+00 7.81884E+00 5.99463E+00
 -1      1714 1.22900E+00 7.87369E+00 4.85797E+00
 -1      1715 8.76154E+00 7.26023E+00 5.51457E+00
 -1      1716 5.18346E+00 5.11985E+00 8.80909E+00
 -1      1717 4.78933E+00 6.04244E+00 8.80909E+00
 -1      1718 7.63399E-01 1.06437E+00 5.70216E+00
 -1      1719 1.09515E+00 2.24071E+00 5.00472E+00
 -1      1720 5.66837E+00 1.06437E+00 9.24183E+00
 -1      1721 5.28615E+00 2.78303E+00 9.02908E+00
 -1      1722 8.94320E+00 1.65627E+00 1.78720E+00
 -1      1723 3.43983E+00 5.99651E+00 7.88412E+00
 -1      1724 3.24771E+00 4.37786E+00 9.10380E+00
 -1      1725 4.30213E+00 8.89881E+00 9.23660E+00
 -1      1726 3.60426E+00 9.23660E+00 9.23660E+00
 -1      1727 3.58706E+00 8.78033E+00 8.01693E+00
 -1      1728 3.58706E+00 8.01693E+00 8.78033E+00
 -1      1729 1.85512E+00 7.08146E+00 9.47566E-01
 -1      1730 1.82780E+00 5.67417E+00 9.92933E-01
 -1      1731 2.25318E+00 6.39376E+00 1.94050E+00
 -1      1732 2.44057E+00 6.06908E+00 9.92933E-01
 -1      1733 1.06437E+00 1.06437E+00 5.00858E+00
 -1      1734 7.63399E-01 1.06437E+00 4.30642E+00
 -1      1735 7.21405E+00 9.01618E+00 1.75887E+00
 -1      1736 5.80688E+00 8.92676E+00 1.83676E+00
 -1      1737 7.73564E+00 7.59210E+00 8.95310E+00
 -1      1738 6.83664E+00 7.46205E+00 8.78892E+00
 -1      1739 7.61354E+00 6.16513E+00 9.06352E+00
 -1      1740 4.29285E-01 4.29285E-01 9.14143E+00
 -1      1741 4.29285E-01 8.54167E-01 8.71655E+00
 -1      1742 3.72340E+00 8.97488E+00 4.88551E+00
 -1      1743 4.99571E+00 1.06437E+00 8.89881E+00
 -1      1744 6.11283E+00 5.18595E+00 9.49662E-01
 -1      1745 1.09515E+00 2.76916E+00 4.66211E+00
 -1      1746 9.56693E+00 4.29285E-01 9.13765E+00
 -1      1747 9.56693E+00 8.54167E-01 8.71277E+00
 -1      1748 2.79305E+00 6.65087E+00 3.04170E+00
 -1      1749 7.21405E+00 8.25278E+00 9.95476E-01
 -1      1750 5.80688E+00 8.16336E+00 1.07336E+00
 -1      1751 9.58621E+00 9.58621E+00 8.27163E-01
 -1      1752 9.58621E+00 9.17818E+00 1.23457E+00
 -1      1753 2.82180E+00 8.97488E+00 4.51965E+00
 -1      1754 1.06437E+00 9.23408E+00 4.33376E+00
 -1      1755 2.29336E+00 8.97488E+00 4.86226E+00
 -1      1756 1.49773E+00 8.50595E+00 9.36011E+00
 -1      1757 1.98459E+00 8.03350E+00 9.36011E+00
 -1      1758 8.79249E+00 6.17777E+00 5.10533E+00
 -1      1759 8.79249E+00 6.31318E+00 5.87134E+00
 -1      1760 8.76154E+00 7.12482E+00 4.74857E+00
 -1      1761 1.11293E+00 5.32305E+00 2.62583E+00
 -1      1762 1.16409E+00 5.49398E+00 3.88469E+00
 -1      1763 8.27664E-01 6.09404E+00 3.19006E+00
 -1      1764 1.94059E+00 5.75746E+00 2.55010E+00
 -1      1765 1.93829E+00 8.90039E+00 9.36011E+00
 -1      1766 1.11293E+00 4.98895E+00 2.05730E+00
 -1      1767 1.06437E+00 8.89881E+00 5.00429E+00
 -1      1768 1.06437E+00 9.23660E+00 5.70216E+00
 -1      1769 1.22900E+00 8.21148E+00 5.55584E+00
 -1      1770 2.27257E+00 6.97786E+00 6.92683E+00
 -1      1771 5.11584E+00 1.20790E+00 2.16776E+00
 -1      1772 4.08967E+00 8.74823E+00 5.58459E+00
 -1      1773 4.61985E+00 8.74823E+00 6.11237E+00
 -1      1774 3.09685E+00 9.23660E+00 9.54028E+00
 -1      1775 3.07965E+00 8.78033E+00 8.32061E+00
 -1      1776 8.94015E+00 5.00616E+00 7.96233E+00
 -1      1777 7.39255E+00 5.16264E+00 9.49662E-01
 -1      1778 8.89881E+00 4.99571E+00 1.06437E+00
 -1      1779 8.94714E+00 4.29355E+00 2.07641E+00
 -1      1780 7.84595E+00 4.29784E+00 1.01205E+00
 -1      1781 4.94079E-01 7.63399E-01 6.90266E+00
 -1      1782 4.94079E-01 4.94079E-01 7.40958E+00
 -1      1783 1.60270E+00 1.04135E+00 7.58670E+00
 -1      1784 1.10862E+00 1.53543E+00 7.58670E+00
 -1      1785 8.79249E+00 5.39522E+00 5.48679E+00
 -1      1786 8.92723E+00 5.05658E+00 4.34174E+00
 -1      1787 8.92723E+00 5.83913E+00 3.96029E+00
 -1      1788 8.76154E+00 7.74668E+00 5.10249E+00
 -1      1789 8.79249E+00 5.79484E+00 6.40130E+00
 -1      1790 8.94015E+00 5.40017E+00 7.50557E+00
 -1      1791 8.94714E+00 3.93360E+00 2.73953E+00
 -1      1792 2.58945E+00 4.59717E-01 4.59717E-01
 -1      1793 3.12186E+00 7.54668E-01 4.59717E-01
 -1      1794 2.39216E+00 1.07189E+00 1.39503E+00
 -1      1795 2.39216E+00 1.53161E+00 9.35315E-01
 -1      1796 7.40981E+00 9.50592E+00 4.92067E-01
 -1      1797 6.90289E+00 9.23660E+00 4.92067E-01
 -1      1798 7.72120E+00 9.01618E+00 1.48754E+00
 -1      1799 7.72097E+00 8.52210E+00 9.95476E-01
 -1      1800 9.58621E+00 8.42867E-01 9.57071E+00
 -1      1801 9.17818E+00 1.25028E+00 9.57071E+00
 -1      1802 1.25028E+00 8.21816E-01 9.57071E+00
 -1      1803 8.42867E-01 4.13787E-01 9.57071E+00
 -1      1804 5.93898E+00 9.33260E-01 5.08009E+00
 -1      1805 4.13581E-01 8.43072E-01 9.57071E+00
 -1      1806 8.20992E-01 1.25110E+00 9.57071E+00
 -1      1807 3.88520E+00 8.78033E+00 7.23045E+00
 -1      1808 3.35502E+00 6.70267E+00 8.78033E+00
 -1      1809 3.88520E+00 7.23045E+00 8.78033E+00
 -1      1810 3.12596E+00 7.45371E+00 8.78033E+00
 -1      1811 4.59717E-01 2.58945E+00 4.59717E-01
 -1      1812 4.59717E-01 3.12356E+00 7.64515E-01
 -1      1813 1.55715E+00 2.36662E+00 9.35315E-01
 -1      1814 1.09743E+00 2.36662E+00 1.39503E+00
 -1      1815 6.87768E+00 4.92067E-01 9.24183E+00
 -1      1816 7.41030E+00 4.92067E-01 9.54028E+00
 -1      1817 7.71211E+00 9.93162E-01 8.55904E+00
 -1      1818 7.71186E+00 1.48523E+00 9.01876E+00
 -1      1819 6.39574E+00 9.23660E+00 7.63399E-01
 -1      1820 4.59717E-01 7.41030E+00 4.92067E-01
 -1      1821 7.14870E-01 6.88595E+00 4.92067E-01
 -1      1822 1.14025E+00 7.60555E+00 1.43963E+00
 -1      1823 1.59997E+00 7.60580E+00 9.47566E-01
 -1      1824 9.56693E+00 9.15315E+00 4.13581E-01
 -1      1825 9.56693E+00 8.74512E+00 8.20992E-01
 -1      1826 8.74512E+00 8.20992E-01 9.56693E+00
 -1      1827 9.15315E+00 4.13581E-01 9.56693E+00
 -1      1828 8.74512E+00 9.56693E+00 8.20992E-01
 -1      1829 9.15315E+00 9.56693E+00 4.13581E-01
 -1      1830 9.02912E+00 4.23877E+00 5.12130E+00
 -1      1831 8.12138E+00 8.35274E-01 1.78638E+00
 -1      1832 8.16461E+00 1.60747E+00 9.65384E-01
 -1      1833 1.16409E+00 4.25697E+00 4.41347E+00
 -1      1834 7.83896E+00 5.00616E+00 9.06352E+00
 -1      1835 9.23660E+00 6.90289E+00 4.92067E-01
 -1      1836 9.54028E+00 7.41030E+00 4.92067E-01
 -1      1837 8.25278E+00 7.21405E+00 9.95476E-01
 -1      1838 8.55646E+00 7.72146E+00 9.95476E-01
 -1      1839 9.01618E+00 7.72120E+00 1.48754E+00
 -1      1840 5.51888E+00 4.22521E+00 8.80909E+00
 -1      1841 1.00925E+00 5.00000E+00 7.20490E+00
 -1      1842 1.00925E+00 4.60028E+00 6.75621E+00
 -1      1843 9.06225E+00 8.07897E+00 8.09893E+00
 -1      1844 9.40053E+00 8.60981E+00 8.53219E+00
 -1      1845 7.87437E+00 4.36003E+00 2.82626E+00
 -1      1846 9.23408E+00 9.54028E+00 3.12420E+00
 -1      1847 9.54028E+00 9.54028E+00 2.58945E+00
 -1      1848 9.01618E+00 8.55646E+00 2.29020E+00
 -1      1849 8.55646E+00 9.01618E+00 2.29020E+00
 -1      1850 7.76753E+00 8.47342E+00 8.95310E+00
 -1      1851 9.23408E+00 4.32947E+00 8.89881E+00
 -1      1852 8.20809E+00 8.07897E+00 8.95310E+00
 -1      1853 8.10580E+00 9.00426E+00 9.38635E+00
 -1      1854 8.54636E+00 8.60981E+00 9.38635E+00
 -1      1855 2.58945E+00 4.59717E-01 9.54028E+00
 -1      1856 3.09685E+00 4.59717E-01 9.23660E+00
 -1      1857 2.40335E+00 1.50107E+00 8.88191E+00
 -1      1858 2.40335E+00 1.04135E+00 8.42219E+00
 -1      1859 9.54028E+00 2.58945E+00 9.54028E+00
 -1      1860 9.54028E+00 3.09685E+00 9.23660E+00
 -1      1861 9.00684E+00 2.28789E+00 8.55904E+00
 -1      1862 8.54712E+00 2.28789E+00 9.01876E+00
 -1      1863 7.14870E-01 5.67664E+00 1.06437E+00
 -1      1864 1.09749E+00 5.04526E+00 1.06437E+00
 -1      1865 2.21041E+00 5.04278E+00 9.92933E-01
 -1      1866 2.58945E+00 9.54028E+00 4.59717E-01
 -1      1867 3.12356E+00 9.54028E+00 7.64515E-01
 -1      1868 2.43498E+00 8.44081E+00 9.47566E-01
 -1      1869 2.43498E+00 8.90053E+00 1.40728E+00
 -1      1870 8.89881E+00 5.00000E+00 8.89881E+00
 -1      1871 7.66035E+00 8.84787E+00 5.10249E+00
 -1      1872 7.73034E+00 5.86052E+00 9.49662E-01
 -1      1873 6.39574E+00 7.63399E-01 7.63399E-01
 -1      1874 5.69358E+00 7.63399E-01 1.06437E+00
 -1      1875 5.81800E+00 1.97130E+00 1.10339E+00
 -1      1876 5.81800E+00 1.20790E+00 1.86679E+00
 -1      1877 7.14870E-01 6.37881E+00 7.63399E-01
 -1      1878 1.14025E+00 7.09840E+00 1.71096E+00
 -1      1879 8.54167E-01 8.54167E-01 8.29167E+00
 -1      1880 9.14583E+00 8.54167E-01 8.29167E+00
 -1      1881 1.14025E+00 7.54597E+00 2.28313E+00
 -1      1882 8.27664E-01 6.90967E+00 2.89273E+00
 -1      1883 5.14986E+00 2.29374E+00 1.10339E+00
 -1      1884 9.23660E+00 6.39574E+00 7.63399E-01
 -1      1885 7.77856E-01 7.98979E+00 7.78249E+00
 -1      1886 9.17818E+00 9.17818E+00 1.64198E+00
 -1      1887 5.10472E+00 8.92676E+00 2.13772E+00
 -1      1888 8.89881E+00 5.67266E+00 9.24183E+00
 -1      1889 9.23660E+00 6.37053E+00 9.24183E+00
 -1      1890 8.94015E+00 5.67881E+00 8.30535E+00
 -1      1891 8.17675E+00 5.70403E+00 9.06352E+00
 -1      1892 1.67516E+00 8.21816E-01 9.14583E+00
 -1      1893 9.17818E+00 1.67516E+00 9.14583E+00
 -1      1894 8.20992E-01 1.67598E+00 9.14583E+00
 -1      1895 5.02545E+00 1.08584E+00 1.06437E+00
 -1      1896 8.32402E+00 9.14583E+00 8.20992E-01
 -1      1897 8.32402E+00 8.20992E-01 9.14583E+00
 -1      1898 9.14583E+00 8.32402E+00 8.20992E-01
 -1      1899 6.43564E-01 8.50595E+00 8.50595E+00
 -1      1900 1.00925E+00 4.07010E+00 6.22843E+00
 -1      1901 9.21969E+00 4.35893E+00 1.06437E+00
 -1      1902 8.16683E+00 3.66106E+00 1.01205E+00
 -1      1903 9.21969E+00 3.69205E+00 7.64515E-01
 -1      1904 8.94714E+00 3.62668E+00 1.77656E+00
 -1      1905 7.14107E+00 8.35274E-01 1.72878E+00
 -1      1906 7.14107E+00 1.59867E+00 9.65384E-01
 -1      1907 7.95635E+00 4.30655E+00 4.40798E+00
 -1      1908 7.88298E+00 9.50592E+00 8.20992E-01
 -1      1909 8.19436E+00 9.01618E+00 1.81647E+00
 -1      1910 8.16201E+00 8.16201E+00 9.95476E-01
 -1      1911 1.54126E+00 8.84395E+00 6.83453E+00
 -1      1912 8.29885E+00 7.13100E+00 8.95310E+00
 -1      1913 9.54028E+00 7.88346E+00 8.20992E-01
 -1      1914 9.01618E+00 8.19436E+00 1.81647E+00
 -1      1915 4.92067E-01 2.58970E+00 9.54028E+00
 -1      1916 8.20992E-01 2.11654E+00 9.54028E+00
 -1      1917 1.10862E+00 2.33608E+00 8.42219E+00
 -1      1918 1.92961E+00 1.86317E+00 8.88191E+00
 -1      1919 1.60069E+00 2.33633E+00 8.88191E+00
 -1      1920 2.11572E+00 8.21816E-01 9.54028E+00
 -1      1921 1.96279E+00 1.04135E+00 8.02774E+00
 -1      1922 1.10862E+00 1.89552E+00 8.02774E+00
 -1      1923 9.17818E+00 2.11572E+00 9.54028E+00
 -1      1924 9.00684E+00 1.84733E+00 8.16459E+00
 -1      1925 8.18502E+00 1.81415E+00 9.01876E+00
 -1      1926 7.88346E+00 8.20992E-01 9.54028E+00
 -1      1927 1.09515E+00 2.74644E+00 5.42278E+00
 -1      1928 9.54028E+00 9.17818E+00 2.11572E+00
 -1      1929 5.10901E+00 8.92676E+00 1.07336E+00
 -1      1930 8.15267E+00 9.93162E-01 8.16459E+00
 -1      1931 1.09743E+00 1.56396E+00 2.23029E+00
 -1      1932 1.58950E+00 1.07189E+00 2.23029E+00
 -1      1933 4.92067E-01 4.92067E-01 2.58996E+00
 -1      1934 6.05032E-01 1.09710E+00 1.91385E+00
 -1      1935 1.09710E+00 6.05032E-01 1.91385E+00
 -1      1936 1.70247E+00 1.67692E+00 1.55419E+00
 -1      1937 7.77856E-01 7.25631E+00 6.54874E+00
 -1      1938 7.77856E-01 8.08055E+00 6.83453E+00
 -1      1939 4.92067E-01 9.54028E+00 2.58970E+00
 -1      1940 1.63232E+00 8.90053E+00 2.24254E+00
 -1      1941 1.14025E+00 8.44081E+00 2.24229E+00
 -1      1942 5.39109E-01 8.91784E+00 1.90192E+00
 -1      1943 1.67936E+00 8.27809E+00 1.55476E+00
 -1      1944 1.03118E+00 9.37756E+00 1.90218E+00
 -1      1945 7.63399E-01 9.23660E+00 6.39574E+00
 -1      1946 1.89976E+00 6.05032E-01 1.07859E+00
 -1      1947 1.89976E+00 1.06475E+00 6.18872E-01
 -1      1948 1.06437E+00 5.00429E+00 8.89881E+00
 -1      1949 9.98827E-01 8.08284E+00 6.07199E-01
 -1      1950 5.39109E-01 8.08258E+00 1.09927E+00
 -1      1951 8.92723E+00 4.69794E+00 3.54169E+00
 -1      1952 9.02912E+00 3.88013E+00 4.32125E+00
 -1      1953 1.06475E+00 1.89976E+00 6.18872E-01
 -1      1954 6.05032E-01 1.89976E+00 1.07859E+00
 -1      1955 1.95160E+00 1.92606E+00 9.35315E-01
 -1      1956 1.10862E+00 2.38238E+00 7.55530E+00
 -1      1957 9.00684E+00 2.33419E+00 7.69215E+00
 -1      1958 9.00684E+00 1.48724E+00 7.72355E+00
 -1      1959 8.54712E+00 9.93162E-01 7.72403E+00
 -1      1960 5.10901E+00 7.82557E+00 1.07336E+00
 -1      1961 9.06225E+00 7.10579E+00 8.19493E+00
 -1      1962 6.72153E+00 9.33260E-01 4.69863E+00
 -1      1963 7.34339E+00 9.33260E-01 5.05255E+00
 -1      1964 1.96125E+00 8.90053E+00 1.76938E+00
 -1      1965 2.43300E+00 1.07189E+00 2.28987E+00
 -1      1966 1.91843E+00 1.07189E+00 1.75713E+00
 -1      1967 1.36010E+00 9.37756E+00 1.42901E+00
 -1      1968 8.27664E-01 6.46209E+00 2.32057E+00
 -1      1969 1.45920E+00 1.45920E+00 6.18872E-01
 -1      1970 8.94714E+00 3.09257E+00 1.47177E+00
 -1      1971 1.42602E+00 6.05032E-01 1.44069E+00
 -1      1972 9.02912E+00 3.33718E+00 4.75545E+00
 -1      1973 1.92873E+00 8.10385E+00 9.47566E-01
 -1      1974 1.32758E+00 8.58088E+00 6.07199E-01
 -1      1975 1.83383E+00 9.37756E+00 1.06692E+00
 -1      1976 9.54028E+00 8.54167E-01 7.85111E+00
 -1      1977 9.54028E+00 4.94079E-01 7.41007E+00
 -1      1978 7.92643E+00 7.72201E-01 4.92067E-01
 -1      1979 7.64822E+00 8.35274E-01 1.45745E+00
 -1      1980 1.83383E+00 8.91784E+00 6.07199E-01
 -1      1981 4.14930E+00 4.74372E+00 9.10380E+00
 -1      1982 7.41030E+00 4.59717E-01 4.92067E-01
 -1      1983 7.64848E+00 1.29499E+00 9.65384E-01
 -1      1984 3.22499E+00 5.13852E+00 9.10380E+00
 -1      1985 6.90289E+00 7.63399E-01 4.92067E-01
 -1      1986 4.94079E-01 9.23660E+00 6.90266E+00
 -1      1987 4.94079E-01 9.54028E+00 7.41007E+00
 -1      1988 7.77856E-01 8.38424E+00 7.34193E+00
 -1      1989 1.27193E+00 8.84395E+00 7.34145E+00
 -1      1990 9.54028E+00 7.41055E+00 9.54028E+00
 -1      1991 9.23660E+00 6.90315E+00 9.54028E+00
 -1      1992 8.60254E+00 7.63841E+00 8.95310E+00
 -1      1993 9.06225E+00 7.63841E+00 8.49338E+00
 -1      1994 9.22141E+00 2.06692E+00 4.59717E-01
 -1      1995 9.13387E+00 9.56693E+00 9.56693E+00
 -1      1996 8.96746E+00 9.03092E+00 9.38635E+00
 -1      1997 8.96746E+00 9.46398E+00 8.95329E+00
 -1      1998 8.56719E+00 9.46398E+00 9.38635E+00
 -1      1999 9.56693E+00 9.56693E+00 9.13387E+00
 -1      2000 9.40053E+00 9.03092E+00 8.95329E+00
 -1      2001 9.40053E+00 9.46398E+00 8.55302E+00
 -1      2002 9.56693E+00 9.13387E+00 9.56693E+00
 -1      2003 9.40053E+00 8.63065E+00 9.38635E+00
 -1      2004 8.54636E+00 9.46398E+00 8.53219E+00
 -1      2005 8.42867E-01 4.29285E-01 4.13787E-01
 -1      2006 1.01861E+00 6.05032E-01 1.03266E+00
 -1      2007 1.03432E+00 1.03432E+00 6.18872E-01
 -1      2008 1.43837E+00 6.05032E-01 6.18872E-01
 -1      2009 4.29285E-01 8.42867E-01 4.13787E-01
 -1      2010 6.05032E-01 1.01861E+00 1.03266E+00
 -1      2011 6.05032E-01 1.43837E+00 6.18872E-01
 -1      2012 4.13581E-01 4.13581E-01 8.27575E-01
 -1      2013 6.05032E-01 6.05032E-01 1.45221E+00
 -1      2014 4.13581E-01 9.58621E+00 8.27369E-01
 -1      2015 9.52691E-01 9.37756E+00 1.02099E+00
 -1      2016 5.39109E-01 8.96377E+00 1.02078E+00
 -1      2017 5.39109E-01 9.37756E+00 1.44053E+00
 -1      2018 8.19033E-01 9.59250E+00 4.13787E-01
 -1      2019 9.44560E-01 8.97006E+00 6.07199E-01
 -1      2020 1.37244E+00 9.37756E+00 6.07199E-01
 -1      2021 4.05451E-01 9.17871E+00 4.13581E-01
 -1      2022 5.39109E-01 8.54423E+00 6.07199E-01
 -1      2023 6.05032E-01 1.42602E+00 1.44069E+00
 -1      2024 1.63202E+00 8.84395E+00 7.78249E+00
 -1      2025 5.39109E-01 8.55574E+00 1.42819E+00
 -1      2026 4.29285E-01 9.13765E+00 9.56693E+00
 -1      2027 1.07285E+00 8.93083E+00 9.36011E+00
 -1      2028 6.43564E-01 8.92705E+00 8.92705E+00
 -1      2029 6.43564E-01 8.52678E+00 9.36011E+00
 -1      2030 4.29285E-01 9.56693E+00 9.13765E+00
 -1      2031 1.07285E+00 9.36011E+00 8.93083E+00
 -1      2032 6.43564E-01 9.36011E+00 8.52678E+00
 -1      2033 8.58570E-01 9.57071E+00 9.57071E+00
 -1      2034 1.47690E+00 9.36011E+00 9.36011E+00
 -1      2035 8.94081E+00 8.16926E+00 9.38635E+00
 -1      2036 9.40053E+00 8.16926E+00 8.92663E+00
 -1      2037 1.49773E+00 9.36011E+00 8.50595E+00
 -1      2038 6.43564E-01 8.90039E+00 8.06539E+00
 -1      2039 1.13764E+00 9.36011E+00 8.06490E+00
 -1      2040 9.54028E+00 7.63399E-01 6.90315E+00
 -1      2041 2.58945E+00 9.54028E+00 9.54028E+00
 -1      2042 9.54028E+00 2.58945E+00 4.59717E-01
 -1      2043 7.41055E+00 9.54028E+00 9.54028E+00
 -1      2044 8.10580E+00 9.46398E+00 8.92663E+00
 -1      2045 1.93829E+00 9.36011E+00 8.90039E+00
 -1      2046 2.43072E+00 1.17635E+00 3.85499E+00
 -1      2047 4.77831E+00 6.64999E+00 1.48453E+00
 -1      2048 2.54833E+00 6.97820E+00 8.78033E+00
 -1      2049 2.25811E+00 6.33178E+00 8.29018E+00
 -1      2050 7.66323E+00 6.62450E+00 1.56946E+00
 -1      2051 1.77265E+00 5.69788E+00 8.30609E+00
 -1      2052 7.58559E+00 3.84172E+00 9.06352E+00
 -1      2053 8.94015E+00 3.84718E+00 7.73691E+00
 -1      2054 8.76154E+00 7.49332E+00 3.93805E+00
 -1      2055 8.42663E+00 6.70358E+00 3.71554E+00
 -1      2056 8.79249E+00 6.57421E+00 6.61822E+00
 -1      2057 2.07362E+00 5.00429E+00 8.30609E+00
 -1      2058 2.55908E+00 5.63820E+00 8.29018E+00
 -1      2059 8.47656E+00 2.43683E+00 6.68717E+00
 -1      2060 3.95569E+00 1.20790E+00 2.45795E+00
 -1      2061 2.10441E+00 3.67635E+00 5.80652E+00
 -1      2062 7.63399E-01 5.69787E+00 8.89881E+00
 -1      2063 7.76753E+00 8.93313E+00 8.49338E+00
 -1      2064 6.38367E+00 1.35069E+00 3.43998E+00
 -1      2065 6.27440E+00 9.33260E-01 4.18544E+00
 -1      2066 6.26557E+00 1.20790E+00 2.43896E+00
 -1      2067 8.92723E+00 6.20763E+00 3.14977E+00
 -1      2068 3.08880E+00 6.81413E+00 9.47566E-01
 -1      2069 8.55385E+00 2.41506E+00 4.31137E+00
 -1      2070 2.84929E+00 6.28462E+00 8.78033E+00
 -1      2071 3.94457E+00 8.92676E+00 2.42791E+00
 -1      2072 7.09003E+00 9.33260E-01 3.88811E+00
 -1      2073 8.89881E+00 7.63399E-01 4.30213E+00
 -1      2074 8.89881E+00 1.06437E+00 5.00429E+00
 -1      2075 2.44569E+00 8.59671E+00 9.36011E+00
 -1      2076 2.42849E+00 8.14044E+00 8.14044E+00
 -1      2077 8.89881E+00 7.63399E-01 5.69787E+00
 -1      2078 8.89881E+00 5.69787E+00 7.63399E-01
 -1      2079 8.94320E+00 2.13000E+00 1.42510E+00
 -1      2080 1.16409E+00 4.23425E+00 5.17414E+00
 -1      2081 6.30638E+00 3.30632E+00 8.48930E+00
 -1      2082 4.82482E+00 4.31980E+00 8.80909E+00
 -1      2083 7.97626E+00 3.54221E+00 3.60582E+00
 -1      2084 8.89881E+00 9.23408E+00 4.32947E+00
 -1      2085 8.89881E+00 8.89881E+00 5.00000E+00
 -1      2086 1.09749E+00 4.37838E+00 7.64515E-01
 -1      2087 2.63909E+00 8.78033E+00 7.92616E+00
 -1      2088 4.35857E+00 1.08584E+00 7.64515E-01
 -1      2089 8.89881E+00 9.23660E+00 5.69787E+00
 -1      2090 1.11293E+00 5.69111E+00 1.75633E+00
 -1      2091 8.48742E+00 3.09257E+00 1.01205E+00
 -1      2092 9.17818E+00 4.92067E-01 2.11597E+00
 -1      2093 9.21969E+00 3.15794E+00 4.59717E-01
 -1      2094 5.26353E+00 8.80308E+00 7.23904E+00
 -1      2095 5.26353E+00 7.25320E+00 8.78892E+00
 -1      2096 1.58345E+00 3.14689E+00 3.77225E+00
 -1      2097 1.84222E+00 8.84395E+00 6.14095E+00
 -1      2098 5.39109E-01 8.02300E+00 1.94276E+00
 -1      2099 1.00925E+00 3.84103E+00 6.97947E+00
 -1      2100 8.94015E+00 6.17954E+00 7.72249E+00
 -1      2101 1.94194E+00 6.50811E+00 5.88845E+00
 -1      2102 2.11889E+00 7.51734E+00 8.63666E+00
 -1      2103 6.87793E+00 9.24183E+00 9.54028E+00
 -1      2104 7.43492E+00 8.84787E+00 6.26146E+00
 -1      2105 8.16855E+00 2.57004E+00 1.01205E+00
 -1      2106 2.87066E+00 3.15957E+00 9.35315E-01
 -1      2107 8.20809E+00 8.93313E+00 8.09893E+00
 -1      2108 4.25915E+00 5.51466E+00 8.80909E+00
 -1      2109 4.92067E-01 9.23408E+00 3.12445E+00
 -1      2110 1.09515E+00 2.51738E+00 6.17382E+00
 -1      2111 7.63399E-01 4.92067E-01 3.09711E+00
 -1      2112 6.05032E-01 1.94060E+00 1.97343E+00
 -1      2113 4.92067E-01 3.09711E+00 9.23660E+00
 -1      2114 8.54167E-01 4.94079E-01 7.85063E+00
 -3
    3C                          1087                                     1
 -1       697    6    0    1
 -2       143      1253      1268      1279      1297      1295      1296      1299      1298      1300
 -1       698    6    0    1
 -2      1272      1255      1277      1287      1303      1301      1302      1305      1304      1306
 -1       699    6    0    1
 -2       909      1253      1268      1280      1308      1295      1307      1310      1309      1311
 -1       700    6    0    1
 -2      1277       165      1272      1287      1313      1312      1302      1306      1314      1305
 -1       701    6    0    1
 -2      1257      1251      1258      1262      1317      1315      1316      1319      1318      1320
 -1       702    6    0    1
 -2      1257       327       346      1271      1322       475      1321      1324      1323      1325
 -1       703    6    0    1
 -2      1253       536      1266      1274      1328      1326      1327      1330      1329      1331
 -1       704    6    0    1
 -2      1251      1257      1258      1264      1317      1316      1315      1333      1332      1334
 -1       705    6    0    1
 -2      1268       902       909      1280      1335      1026      1307      1311      1336      1310
 -1       706    6    0    1
 -2       143       156      1253      1279       296      1337      1297      1299      1338      1298
 -1       707    6    0    1
 -2      1272       165      1087      1287      1312      1339      1340      1305      1314      1341
 -1       708    6    0    1
 -2       709       724      1257      1264       824      1342      1343      1345      1344      1332
 -1       709    6    0    1
 -2      1257       697      1270      1271      1348      1346      1347      1324      1349      1350
 -1       710    6    0    1
 -2       163       143      1268      1279       295      1296      1351      1352      1299      1300
 -1       711    6    0    1
 -2      1264       724      1257      1286      1344      1342      1332      1354      1353      1355
 -1       712    6    0    1
 -2      1253       143      1268      1274      1297      1296      1295      1330      1356      1357
 -1       713    6    0    1
 -2       158       157       145      1281       312       314       313      1359      1358      1360
 -1       714    6    0    1
 -2       525      1255      1266      1274      1363      1361      1362      1365      1364      1331
 -1       715    6    0    1
 -2       918       892       549       366       957      1366      1367      1369      1368      1370
 -1       716    6    0    1
 -2      1251      1254      1277      1287      1373      1371      1372      1375      1374      1306
 -1       717    6    0    1
 -2      1254      1264      1265      1278      1378      1376      1377      1380      1379      1381
 -1       718    6    0    1
 -2      1257       346      1275      1288      1321      1382      1383      1385      1384      1386
 -1       719    6    0    1
 -2      1264      1251      1254      1265      1333      1373      1378      1376      1387      1377
 -1       720    6    0    1
 -2      1253       536       526      1266      1328       646      1388      1327      1326      1389
 -1       721    6    0    1
 -2      1266       536       525      1274      1326       642      1362      1331      1329      1365
 -1       722    6    0    1
 -2      1258       908      1267      1286      1392      1390      1391      1394      1393      1395
 -1       723    6    0    1
 -2      1251      1253      1266      1274      1397      1327      1396      1398      1330      1331
 -1       724    6    0    1
 -2      1266      1255      1251      1274      1361      1399      1396      1331      1364      1398
 -1       725    6    0    1
 -2      1270       697       719      1271      1346       841      1400      1350      1349      1401
 -1       726    6    0    1
 -2      1267       908       904      1286      1390      1035      1402      1395      1393      1403
 -1       727    6    0    1
 -2      1277      1255      1251      1287      1301      1399      1372      1306      1304      1375
 -1       728    6    0    1
 -2      1266       527      1256      1276      1406      1404      1405      1408      1407      1409
 -1       729    6    0    1
 -2      1252      1261      1270      1282      1412      1410      1411      1414      1413      1415
 -1       730    6    0    1
 -2      1255       537      1266      1276      1417      1416      1361      1419      1418      1408
 -1       731    6    0    1
 -2      1258       905      1262      1279      1421      1420      1320      1423      1422      1424
 -1       732    6    0    1
 -2      1265      1253      1251      1274      1425      1397      1387      1426      1330      1398
 -1       733    6    0    1
 -2      1277       157       158      1281      1428       312      1427      1429      1358      1359
 -1       734    6    0    1
 -2      1263      1252      1261      1264      1431      1412      1430      1433      1432      1434
 -1       735    6    0    1
 -2      1272       530       160      1274      1437      1435      1436      1439      1438      1440
 -1       736    6    0    1
 -2      1260      1252      1263      1264      1442      1431      1441      1443      1432      1433
 -1       737    6    0    1
 -2       526      1253      1266      1280      1388      1327      1389      1444      1309      1445
 -1       738    6    0    1
 -2      1266      1251      1256      1284      1396      1446      1405      1448      1447      1449
 -1       739    6    0    1
 -2       362       731      1282      1289      1452      1450      1451      1454      1453      1455
 -1       740    6    0    1
 -2      1265       154       168      1278      1457       266      1456      1381      1458      1459
 -1       741    6    0    1
 -2      1263      1254      1251      1287      1461      1373      1460      1462      1374      1375
 -1       742    6    0    1
 -2      1074       704      1252      1260      1465      1463      1464      1467      1466      1442
 -1       743    6    0    1
 -2      1067      1256      1273      1276      1470      1468      1469      1471      1409      1472
 -1       744    6    0    1
 -2      1262       909       906      1280      1474      1060      1473      1475      1310      1476
 -1       745    6    0    1
 -2      1273       529      1086      1276      1479      1477      1478      1472      1480      1481
 -1       746    6    0    1
 -2      1088       535      1272      1276      1484      1482      1483      1486      1485      1487
 -1       747    6    0    1
 -2      1257      1251      1261      1264      1317      1488      1489      1332      1333      1434
 -1       748    6    0    1
 -2      1263      1255      1266      1276      1491      1361      1490      1492      1419      1408
 -1       749    6    0    1
 -2      1259      1251      1266      1284      1494      1396      1493      1495      1447      1448
 -1       750    6    0    1
 -2      1264      1258      1265      1278      1334      1496      1376      1379      1497      1381
 -1       751    6    0    1
 -2       697       709      1257      1270       842      1343      1348      1346      1498      1347
 -1       752    6    0    1
 -2       527       529       515      1273       683       682       684      1499      1479      1500
 -1       753    6    0    1
 -2      1273      1089       350      1283      1503      1501      1502      1505      1504      1506
 -1       754    6    0    1
 -2       537       514       535      1272       676       678       677      1508      1507      1482
 -1       755    6    0    1
 -2       882       902       909      1268      1027      1026      1025      1509      1335      1307
 -1       756    6    0    1
 -2       892       338       549       366      1511      1510      1366      1368       383      1370
 -1       757    6    0    1
 -2      1258      1257      1262      1286      1316      1319      1320      1394      1355      1512
 -1       758    6    0    1
 -2      1254      1260      1263      1264      1513      1441      1461      1378      1443      1433
 -1       759    6    0    1
 -2       163       156       143      1279       294       296       295      1352      1338      1299
 -1       760    6    0    1
 -2      1258      1251      1264      1265      1315      1333      1334      1496      1387      1376
 -1       761    6    0    1
 -2       525       530       514      1272       674       673       675      1514      1437      1507
 -1       762    6    0    1
 -2      1253      1262      1266      1280      1516      1515      1327      1309      1475      1445
 -1       763    6    0    1
 -2      1257       709      1264      1270      1343      1345      1332      1347      1498      1517
 -1       764    6    0    1
 -2      1263      1255      1251      1266      1491      1399      1460      1490      1361      1396
 -1       765    6    0    1
 -2      1262      1251      1253      1266      1318      1397      1516      1515      1396      1327
 -1       766    6    0    1
 -2       534       347      1259      1290      1520      1518      1519      1522      1521      1523
 -1       767    6    0    1
 -2       896       909       906      1262      1024      1060      1017      1524      1474      1473
 -1       768    6    0    1
 -2      1265       154      1278      1292      1457      1458      1381      1526      1525      1527
 -1       769    6    0    1
 -2       347       534      1259      1269      1520      1519      1518      1529      1528      1530
 -1       770    6    0    1
 -2      1273       345       528      1290      1533      1531      1532      1535      1534      1536
 -1       771    6    0    1
 -2      1278       164      1267      1292      1539      1537      1538      1527      1540      1541
 -1       772    6    0    1
 -2       697       709       724      1257       842       824       843      1348      1343      1342
 -1       773    6    0    1
 -2      1261      1251      1263      1264      1488      1460      1430      1434      1333      1433
 -1       774    6    0    1
 -2      1266       537       527      1276      1416       650      1406      1408      1418      1407
 -1       775    6    0    1
 -2       352      1256      1261      1284      1544      1542      1543      1545      1449      1546
 -1       776    6    0    1
 -2      1262      1259      1266      1280      1547      1493      1515      1475      1548      1445
 -1       777    6    0    1
 -2      1265      1251      1254      1277      1387      1373      1377      1549      1372      1371
 -1       778    6    0    1
 -2      1262      1257      1251      1275      1319      1317      1318      1550      1383      1551
 -1       779    6    0    1
 -2       537       525      1255      1266       645      1363      1417      1416      1362      1361
 -1       780    6    0    1
 -2      1251      1258      1262      1265      1315      1320      1318      1387      1496      1552
 -1       781    6    0    1
 -2      1272      1068      1088      1276      1553      1219      1483      1487      1554      1486
 -1       782    6    0    1
 -2      1259       328       347      1269      1555       484      1518      1530      1556      1529
 -1       783    6    0    1
 -2      1259      1251      1262      1266      1494      1318      1547      1493      1396      1515
 -1       784    6    0    1
 -2      1261      1256      1251      1284      1542      1446      1488      1546      1449      1447
 -1       785    6    0    1
 -2      1257      1258      1264      1286      1316      1334      1332      1355      1394      1354
 -1       786    6    0    1
 -2      1253       156      1265      1279      1337      1557      1425      1298      1338      1558
 -1       787    6    0    1
 -2      1258       711      1264      1286      1560      1559      1334      1394      1561      1354
 -1       788    6    0    1
 -2      1251      1255      1263      1287      1399      1491      1460      1375      1304      1462
 -1       789    6    0    1
 -2      1288      1262       895      1291      1564      1562      1563      1566      1565      1567
 -1       790    6    0    1
 -2      1261      1257      1264      1270      1489      1332      1434      1410      1347      1517
 -1       791    6    0    1
 -2       885      1257      1286      1288      1569      1355      1568      1570      1385      1571
 -1       792    6    0    1
 -2      1084       704       714      1252      1573       813      1572      1574      1463      1575
 -1       793    6    0    1
 -2      1087       165      1071      1287      1339      1576      1131      1341      1314      1577
 -1       794    6    0    1
 -2       352       329      1256      1284       491      1578      1544      1545      1579      1449
 -1       795    6    0    1
 -2      1266       539       526      1280      1580       648      1389      1445      1581      1444
 -1       796    6    0    1
 -2      1273      1086      1067      1276      1478      1215      1469      1472      1481      1471
 -1       797    6    0    1
 -2      1268       533       902      1280      1583      1582      1335      1311      1584      1336
 -1       798    6    0    1
 -2       895      1262      1280      1291      1562      1475      1585      1567      1565      1586
 -1       799    6    0    1
 -2       162       532      1268      1274      1589      1587      1588      1591      1590      1357
 -1       800    6    0    1
 -2      1257       724       697      1286      1342       843      1348      1355      1353      1592
 -1       801    6    0    1
 -2       534       512      1259      1269       655      1593      1519      1528      1594      1530
 -1       802    6    0    1
 -2      1256       352      1261      1283      1544      1543      1542      1596      1595      1597
 -1       803    6    0    1
 -2      1252      1261      1282      1283      1412      1413      1414      1598      1597      1599
 -1       804    6    0    1
 -2       717       164      1267      1278      1601      1537      1600      1602      1539      1538
 -1       805    6    0    1
 -2      1261      1251      1257      1275      1488      1317      1489      1603      1551      1383
 -1       806    6    0    1
 -2      1256       527      1266      1290      1404      1406      1405      1605      1604      1606
 -1       807    6    0    1
 -2      1251      1259      1262      1275      1494      1547      1318      1551      1607      1550
 -1       808    6    0    1
 -2      1272      1087      1068      1287      1340      1224      1553      1305      1341      1608
 -1       809    6    0    1
 -2      1264       711       724      1286      1559       833      1344      1354      1561      1353
 -1       810    6    0    1
 -2       513       536       526      1253       667       646       666      1609      1328      1388
 -1       811    6    0    1
 -2      1251      1254      1263      1264      1373      1461      1460      1333      1378      1433
 -1       812    6    0    1
 -2      1264       711      1258      1278      1559      1560      1334      1379      1610      1497
 -1       813    6    0    1
 -2      1258       698      1267      1278      1612      1611      1391      1497      1613      1538
 -1       814    6    0    1
 -2      1258      1262      1265      1279      1320      1552      1496      1423      1424      1558
 -1       815    6    0    1
 -2       351       328       347      1259       482       484       483      1614      1555      1518
 -1       816    6    0    1
 -2      1257       697      1271      1286      1348      1349      1324      1355      1592      1615
 -1       817    6    0    1
 -2      1262      1253      1251      1265      1516      1397      1318      1552      1425      1387
 -1       818    6    0    1
 -2       158       176      1100      1281       227      1616      1617      1359      1618      1619
 -1       819    6    0    1
 -2      1270       719       349      1271      1400      1620      1621      1350      1401      1622
 -1       820    6    0    1
 -2       894       905       881      1262      1006      1008      1007      1623      1420      1624
 -1       821    6    0    1
 -2      1256      1263      1266      1276      1625      1490      1405      1409      1492      1408
 -1       822    6    0    1
 -2       719       709       697      1270       840       842       841      1400      1498      1346
 -1       823    6    0    1
 -2      1251      1256      1263      1266      1446      1625      1460      1396      1405      1490
 -1       824    6    0    1
 -2      1262       894      1286      1288      1623      1626      1512      1564      1627      1571
 -1       825    6    0    1
 -2       330       344      1270      1282       502      1628      1629      1631      1630      1415
 -1       826    6    0    1
 -2       329       340       345      1284       490       489       488      1579      1632      1633
 -1       827    6    0    1
 -2       362       731       344      1282      1452      1634       431      1451      1450      1630
 -1       828    6    0    1
 -2      1281       176      1100      1285      1618      1616      1619      1636      1635      1637
 -1       829    6    0    1
 -2       885      1257      1271      1286      1569      1324      1638      1568      1355      1615
 -1       830    6    0    1
 -2       344       713      1270      1282      1640      1639      1628      1630      1641      1415
 -1       831    6    0    1
 -2      1268       143       162      1274      1296       299      1588      1357      1356      1591
 -1       832    6    0    1
 -2      1276      1068      1081      1287      1554      1221      1642      1643      1608      1644
 -1       833    6    0    1
 -2      1074       704      1084      1252      1465      1573      1184      1464      1463      1574
 -1       834    6    0    1
 -2       528       515      1273      1290       687      1500      1532      1536      1645      1535
 -1       835    6    0    1
 -2       698       717      1267      1278       854      1600      1611      1613      1602      1538
 -1       836    6    0    1
 -2      1263      1079      1256      1283      1647      1646      1625      1649      1648      1596
 -1       837    6    0    1
 -2      1286       894       885      1288      1626      1054      1568      1571      1627      1570
 -1       838    6    0    1
 -2      1262      1253      1265      1279      1516      1425      1552      1424      1298      1558
 -1       839    6    0    1
 -2       700       714      1252      1282       868      1575      1650      1652      1651      1414
 -1       840    6    0    1
 -2      1268       901       163      1279      1654      1653      1351      1300      1655      1352
 -1       841    6    0    1
 -2       527       515       538      1290       684       685       651      1604      1645      1656
 -1       842    6    0    1
 -2      1266      1259      1284      1290      1493      1495      1448      1606      1523      1657
 -1       843    6    0    1
 -2       896      1253      1262      1279      1658      1516      1524      1659      1298      1424
 -1       844    6    0    1
 -2       712       723      1252      1264       836      1660      1661      1663      1662      1432
 -1       845    6    0    1
 -2      1280       884       895      1291      1664      1048      1585      1586      1665      1567
 -1       846    6    0    1
 -2       904       718      1267      1286      1667      1666      1402      1403      1668      1395
 -1       847    6    0    1
 -2       351       328      1259      1291       482      1555      1614      1670      1669      1671
 -1       848    6    0    1
 -2      1262      1259      1280      1291      1547      1548      1475      1565      1671      1586
 -1       849    6    0    1
 -2      1259       328      1269      1291      1555      1556      1530      1671      1669      1672
 -1       850    6    0    1
 -2      1256      1266      1284      1290      1405      1448      1449      1605      1606      1657
 -1       851    6    0    1
 -2      1286      1257      1262      1288      1355      1319      1512      1571      1385      1564
 -1       852    6    0    1
 -2      1251      1256      1261      1263      1446      1542      1488      1460      1625      1430
 -1       853    6    0    1
 -2      1252      1093      1082      1263      1674      1206      1673      1431      1675      1676
 -1       854    6    0    1
 -2       904       883       908      1267      1037      1036      1035      1402      1677      1390
 -1       855    6    0    1
 -2       714      1084      1252      1282      1572      1574      1575      1651      1678      1414
 -1       856    6    0    1
 -2      1264       723      1252      1270      1662      1660      1432      1517      1679      1411
 -1       857    6    0    1
 -2       357       541       534      1269      1681       590      1680      1683      1682      1528
 -1       858    6    0    1
 -2       516       530       525      1274       575       674       688      1684      1438      1365
 -1       859    6    0    1
 -2      1269       884      1280      1291      1686      1664      1685      1672      1665      1586
 -1       860    6    0    1
 -2       527       537       519      1276       650       695       694      1407      1418      1687
 -1       861    6    0    1
 -2      1100      1085       158      1281      1134      1688      1617      1619      1689      1359
 -1       862    6    0    1
 -2      1275       346       332      1288      1382       443      1690      1386      1384      1691
 -1       863    6    0    1
 -2       527       519       529      1276       694       629       683      1407      1687      1480
 -1       864    6    0    1
 -2       724       696       711      1264       825       832       833      1344      1692      1559
 -1       865    6    0    1
 -2      1252      1093      1263      1283      1674      1675      1431      1598      1693      1649
 -1       866    6    0    1
 -2       352       340       329      1284       460       490       491      1545      1632      1579
 -1       867    6    0    1
 -2       516       536       532      1274       689       668       576      1684      1329      1590
 -1       868    6    0    1
 -2       168       141      1265      1277       268      1694      1456      1696      1695      1549
 -1       869    6    0    1
 -2       537       535       519      1276       677       630       695      1418      1485      1687
 -1       870    6    0    1
 -2       338       549       521       892      1510       587      1697      1511      1366      1698
 -1       871    6    0    1
 -2       885       894       907      1288      1054      1009      1055      1570      1627      1699
 -1       872    6    0    1
 -2       526       511       539      1266       647       639       648      1389      1700      1580
 -1       873    6    0    1
 -2       731       713       344      1282       783      1640      1634      1450      1641      1630
 -1       874    6    0    1
 -2       699       710      1260      1281       860      1701      1702      1704      1703      1705
 -1       875    6    0    1
 -2       536       516       525      1274       689       688       642      1329      1684      1365
 -1       876    6    0    1
 -2      1262      1257      1275      1288      1319      1383      1550      1564      1385      1386
 -1       877    6    0    1
 -2      1252      1261      1264      1270      1412      1434      1432      1411      1410      1517
 -1       878    6    0    1
 -2      1284       331       345      1290      1706       390      1633      1657      1707      1534
 -1       879    6    0    1
 -2       332       354       346      1275       506       474       443      1690      1708      1382
 -1       880    6    0    1
 -2       709       696       724      1264       822       825       824      1345      1692      1344
 -1       881    6    0    1
 -2      1072       535      1088      1276      1709      1484      1168      1710      1485      1486
 -1       882    6    0    1
 -2      1260       710      1278      1281      1701      1711      1712      1705      1703      1713
 -1       883    6    0    1
 -2       168       154       148      1278       266       322       323      1459      1458      1714
 -1       884    6    0    1
 -2       905       896      1262      1279      1015      1524      1420      1422      1659      1424
 -1       885    6    0    1
 -2       330       344       353      1270       502       501       500      1629      1628      1715
 -1       886    6    0    1
 -2      1082      1066      1092      1263      1204      1199      1205      1676      1716      1717
 -1       887    6    0    1
 -2       160       530       146      1274      1435      1718       204      1440      1438      1719
 -1       888    6    0    1
 -2       529      1072      1086      1276      1720      1166      1477      1480      1710      1481
 -1       889    6    0    1
 -2      1086      1094      1067      1276      1214      1213      1215      1481      1721      1471
 -1       890    6    0    1
 -2      1280      1259      1269      1291      1548      1530      1685      1586      1671      1672
 -1       891    6    0    1
 -2      1262       906       895      1280      1473      1011      1562      1475      1476      1585
 -1       892    6    0    1
 -2       357       328       338      1269       477       476       382      1683      1556      1722
 -1       893    6    0    1
 -2       526       536       511      1266       646       643       647      1389      1326      1700
 -1       894    6    0    1
 -2       511       536       525      1266       643       642       641      1700      1326      1362
 -1       895    6    0    1
 -2       168       141       154      1265       268       267       266      1456      1694      1457
 -1       896    6    0    1
 -2       357       534       347      1269      1680      1520       386      1683      1528      1529
 -1       897    6    0    1
 -2      1260      1254      1263      1287      1513      1461      1441      1723      1374      1462
 -1       898    6    0    1
 -2      1068      1087      1091      1287      1224      1223      1222      1608      1341      1724
 -1       899    6    0    1
 -2      1090       720      1074      1260      1726      1725      1185      1728      1727      1467
 -1       900    6    0    1
 -2      1267       897       883      1279      1729      1028      1677      1731      1730      1732
 -1       901    6    0    1
 -2       146       530       516      1274      1718       575      1733      1719      1438      1684
 -1       902    6    0    1
 -2       347       328       357      1269       484       477       386      1529      1556      1683
 -1       903    6    0    1
 -2       532       162       146      1274      1589       206      1734      1590      1591      1719
 -1       904    6    0    1
 -2       905       896       881      1262      1015      1016      1008      1420      1524      1624
 -1       905    6    0    1
 -2      1271       697       716      1286      1349       845      1735      1615      1592      1736
 -1       906    6    0    1
 -2      1070      1252      1282      1283      1738      1414      1737      1739      1598      1599
 -1       907    6    0    1
 -2        13       178       548       152       182      1740       552       211       212      1741
 -1       908    6    0    1
 -2       696       711      1264      1278       832      1559      1692      1742      1610      1379
 -1       909    6    0    1
 -2      1081      1088      1068      1276      1220      1219      1221      1642      1486      1554
 -1       910    6    0    1
 -2       529       519      1072      1276       629      1743      1720      1480      1687      1710
 -1       911    6    0    1
 -2       535      1072       519      1276      1709      1743       630      1485      1710      1687
 -1       912    6    0    1
 -2       881       894      1262      1288      1007      1623      1624      1744      1627      1564
 -1       913    6    0    1
 -2      1084      1070      1252      1282      1237      1738      1574      1678      1737      1414
 -1       914    6    0    1
 -2       162       143       166      1274       299       297       298      1591      1356      1745
 -1       915    6    0    1
 -2       516       532       146      1274       576      1734      1733      1684      1590      1719
 -1       916    6    0    1
 -2       363        57       550       337       367       559      1746       397       396      1747
 -1       917    6    0    1
 -2      1267      1258      1278      1292      1391      1497      1538      1541      1748      1527
 -1       918    6    0    1
 -2      1271       900       885      1286      1749      1053      1638      1615      1750      1568
 -1       919    6    0    1
 -2       364        75       734       336       376       746      1751       420       419      1752
 -1       920    6    0    1
 -2       338        53       549       366       381       561      1510       383       371      1370
 -1       921    6    0    1
 -2       721       717       698      1278       853       854       852      1753      1602      1613
 -1       922    6    0    1
 -2       712       723       700      1252       836       870       869      1661      1660      1650
 -1       923    6    0    1
 -2      1093      1082      1070      1252      1206      1239      1240      1674      1673      1738
 -1       924    6    0    1
 -2      1074       720       704      1260      1725       815      1465      1467      1727      1466
 -1       925    6    0    1
 -2       164       717       701      1278      1601       761      1754      1539      1602      1755
 -1       926    6    0    1
 -2       709       723      1264      1270       821      1662      1345      1498      1679      1517
 -1       927    6    0    1
 -2      1070      1093      1252      1283      1240      1674      1738      1739      1693      1598
 -1       928    6    0    1
 -2      1100      1077      1069      1285      1135      1225      1227      1637      1756      1757
 -1       929    6    0    1
 -2      1261       353       339      1270      1759       452      1758      1410      1715      1760
 -1       930    6    0    1
 -2       169      1265      1279      1292      1762      1558      1761      1763      1526      1764
 -1       931    6    0    1
 -2       538       515       528      1290       685       687       686      1656      1645      1536
 -1       932    6    0    1
 -2      1069      1077      1095      1285      1225      1177      1226      1757      1756      1765
 -1       933    6    0    1
 -2       163       147       156      1279       260       320       294      1352      1766      1338
 -1       934    6    0    1
 -2       701       159       148      1278      1768       241      1767      1755      1769      1714
 -1       935    6    0    1
 -2      1254      1260      1278      1281      1513      1712      1380      1770      1705      1713
 -1       936    6    0    1
 -2       533       526       517      1280       665       690       613      1584      1444      1771
 -1       937    6    0    1
 -2      1081      1068      1091      1287      1221      1222      1201      1644      1608      1724
 -1       938    6    0    1
 -2       722       710       696      1264       829       827       830      1773      1772      1692
 -1       939    6    0    1
 -2       895       906       884      1280      1011      1042      1048      1585      1476      1664
 -1       940    6    0    1
 -2      1090       725       720      1260      1774       810      1726      1728      1775      1727
 -1       941    6    0    1
 -2       511       525       537      1266       641       645       644      1700      1362      1416
 -1       942    6    0    1
 -2       723       696       709      1264       823       822       821      1662      1692      1345
 -1       943    6    0    1
 -2       148       164       701      1278       243      1754      1767      1714      1539      1755
 -1       944    6    0    1
 -2       352       350       334      1283       492       409       510      1595      1506      1776
 -1       945    6    0    1
 -2       889       332      1288      1291      1778      1691      1777      1780      1779      1566
 -1       946    6    0    1
 -2       156       169      1265      1279       278      1762      1557      1338      1761      1558
 -1       947    6    0    1
 -2       175       545       160      1272      1782      1781       209      1784      1783      1436
 -1       948    6    0    1
 -2       721       711       696      1278       831       832       828      1753      1610      1742
 -1       949    6    0    1
 -2       339       326      1261      1275       451      1785      1758      1787      1786      1603
 -1       950    6    0    1
 -2       349       339       333      1270       471       507       428      1621      1760      1788
 -1       951    6    0    1
 -2      1261       352       342      1283      1543       465      1789      1597      1595      1790
 -1       952    6    0    1
 -2      1084      1070      1082      1252      1237      1239      1238      1574      1738      1673
 -1       953    6    0    1
 -2       700       714       712      1252       868       867       869      1650      1575      1661
 -1       954    6    0    1
 -2       710       696      1264      1278       827      1692      1772      1711      1742      1379
 -1       955    6    0    1
 -2       341       328       351      1291       481       482       461      1791      1669      1670
 -1       956    6    0    1
 -2       511       537       527      1266       644       650       649      1700      1416      1406
 -1       957    6    0    1
 -2       543       902       913      1268      1793       978      1792      1794      1335      1795
 -1       958    6    0    1
 -2       712       696       723      1264       835       823       836      1663      1692      1662
 -1       959    6    0    1
 -2       729       900       916      1271      1797      1003      1796      1798      1749      1799
 -1       960    6    0    1
 -2       363      1076      1104        64      1801      1142      1800       369      1141      1113
 -1       961    6    0    1
 -2      1106      1078       108       548      1123      1160      1109      1803      1802       554
 -1       962    6    0    1
 -2      1258      1267      1279      1292      1391      1731      1423      1748      1541      1764
 -1       963    6    0    1
 -2       527       511      1266      1290       649      1700      1406      1604      1804      1606
 -1       964    6    0    1
 -2      1106        20      1078       178      1108      1121      1123      1805       184      1806
 -1       965    6    0    1
 -2       699       710       722      1260       860       829       861      1702      1701      1807
 -1       966    6    0    1
 -2      1092      1080      1069      1260      1200      1230      1231      1809      1808      1810
 -1       967    6    0    1
 -2       912       163       173      1268      1812       255      1811      1813      1351      1814
 -1       968    6    0    1
 -2      1099       547       529      1273      1816       633      1815      1818      1817      1479
 -1       969    6    0    1
 -2      1263      1255      1276      1287      1491      1419      1492      1462      1304      1643
 -1       970    6    0    1
 -2      1084      1082      1074      1252      1238      1249      1184      1574      1673      1464
 -1       971    6    0    1
 -2       704       712       714      1252       879       867       813      1463      1661      1575
 -1       972    6    0    1
 -2       722       696       712      1264       830       835       834      1773      1692      1663
 -1       973    6    0    1
 -2      1271       716       900      1286      1735      1819      1749      1615      1736      1750
 -1       974    6    0    1
 -2       174       897       917      1267      1821       949      1820      1822      1729      1823
 -1       975    6    0    1
 -2      1082      1093      1066      1263      1206      1193      1204      1676      1675      1716
 -1       976    6    0    1
 -2       336       364        90       920       420       378       449      1825      1824       931
 -1       977    6    0    1
 -2      1104      1076       550       112      1142      1826      1827      1115      1172       560
 -1       978    6    0    1
 -2       706       123       734       920       803       748       772      1828       933      1829
 -1       979    6    0    1
 -2       326       352      1261      1284       459      1543      1785      1830      1545      1546
 -1       980    6    0    1
 -2       892       521       338      1269      1698      1697      1511      1832      1831      1722
 -1       981    6    0    1
 -2       166       156       141      1265       276       277       273      1833      1557      1694
 -1       982    6    0    1
 -2      1256      1261      1263      1283      1542      1430      1625      1596      1597      1649
 -1       983    6    0    1
 -2      1089      1079      1073      1283      1211      1247      1150      1504      1648      1834
 -1       984    6    0    1
 -2       915       898       359      1271       968      1835      1836      1838      1837      1839
 -1       985    6    0    1
 -2      1094      1066      1079      1263      1194      1191      1195      1840      1716      1647
 -1       986    6    0    1
 -2      1254      1260      1264      1278      1513      1443      1378      1380      1712      1379
 -1       987    6    0    1
 -2      1261      1252      1263      1283      1412      1431      1430      1597      1598      1649
 -1       988    6    0    1
 -2       339       326       353      1261       451       453       452      1758      1785      1759
 -1       989    6    0    1
 -2       149       165       167      1277       224       307       325      1841      1313      1842
 -1       990    6    0    1
 -2      1282       335       362      1289      1843       433      1451      1455      1844      1454
 -1       991    6    0    1
 -2       332      1275      1288      1291      1690      1386      1691      1779      1845      1566
 -1       992    6    0    1
 -2       157       158       149      1277       312       222       324      1428      1427      1841
 -1       993    6    0    1
 -2       726       356       719      1271      1847      1846       775      1849      1848      1401
 -1       994    6    0    1
 -2       881       896       906      1262      1016      1017      1012      1624      1524      1473
 -1       995    6    0    1
 -2      1102      1070      1084      1282      1236      1237      1188      1850      1737      1678
 -1       996    6    0    1
 -2       334       350      1089      1283       409      1501      1851      1776      1506      1504
 -1       997    6    0    1
 -2       697       724       716      1286       843       844       845      1592      1353      1736
 -1       998    6    0    1
 -2      1258      1265      1278      1292      1496      1381      1497      1748      1526      1527
 -1       999    6    0    1
 -2      1282      1102      1075      1289      1850      1189      1852      1455      1853      1854
 -1      1000    6    0    1
 -2      1098       535       540      1272      1856       625      1855      1857      1482      1858
 -1      1001    6    0    1
 -2       350       355      1096      1273       404      1859      1860      1502      1861      1862
 -1      1002    6    0    1
 -2       145       176       158      1281       310       227       313      1360      1618      1359
 -1      1003    6    0    1
 -2       538       511       527      1290       638       649       651      1656      1804      1604
 -1      1004    6    0    1
 -2       326       352       342      1261       459       465       464      1785      1543      1789
 -1      1005    6    0    1
 -2       886       897       147      1279       944      1863      1864      1865      1730      1766
 -1      1006    6    0    1
 -2       362       344       330      1282       431       502       496      1451      1630      1631
 -1      1007    6    0    1
 -2       911       718       728      1267      1867       793      1866      1868      1666      1869
 -1      1008    6    0    1
 -2      1093      1079      1263      1283      1192      1647      1675      1693      1648      1649
 -1      1009    6    0    1
 -2       334      1089      1073      1283      1851      1150      1870      1776      1504      1834
 -1      1010    6    0    1
 -2       340       331       345      1284       503       390       489      1632      1706      1633
 -1      1011    6    0    1
 -2       703       709       719      1270       877       840       780      1871      1498      1400
 -1      1012    6    0    1
 -2       907       898       885      1288      1056      1057      1055      1699      1872      1570
 -1      1013    6    0    1
 -2       902       543       533      1268      1793       608      1582      1335      1794      1583
 -1      1014    6    0    1
 -2       899       517       531      1280      1874       611      1873      1875      1771      1876
 -1      1015    6    0    1
 -2      1079      1066      1093      1263      1191      1193      1192      1647      1716      1675
 -1      1016    6    0    1
 -2       174       161       897      1267       263      1877      1821      1822      1878      1729
 -1      1017    6    0    1
 -2       163       912       901      1268      1812       941      1653      1351      1813      1654
 -1      1018    6    0    1
 -2       330       335       362      1282       495       433       496      1631      1843      1451
 -1      1019    6    0    1
 -2        13       548       522       152       552       582       581       211      1741      1879
 -1      1020    6    0    1
 -2       885       900       894      1286      1053      1052      1054      1568      1750      1626
 -1      1021    6    0    1
 -2      1099       529      1086      1273      1815      1477      1171      1818      1479      1478
 -1      1022    6    0    1
 -2       545       530       160      1272       579      1435      1781      1783      1437      1436
 -1      1023    6    0    1
 -2      1075      1070      1102      1282      1234      1236      1189      1852      1737      1850
 -1      1024    6    0    1
 -2       520       550        57       337       601       559       599      1880      1747       396
 -1      1025    6    0    1
 -2      1267       164       142      1292      1537       286      1881      1541      1540      1882
 -1      1026    6    0    1
 -2       909       902       887      1280      1026       983      1059      1310      1336      1883
 -1      1027    6    0    1
 -2       359       898       346      1271      1835      1884       448      1839      1837      1325
 -1      1028    6    0    1
 -2       150       176       145      1281       228       310       309      1885      1618      1360
 -1      1029    6    0    1
 -2       336        75       734       706       419       746      1752      1886       771       772
 -1      1030    6    0    1
 -2       711       718       702      1286       849       798       875      1561      1668      1887
 -1      1031    6    0    1
 -2       521        53       549       338       586       561       587      1697       381      1510
 -1      1032    6    0    1
 -2       534       541       512      1269       590       652       655      1528      1682      1594
 -1      1033    6    0    1
 -2      1083       343      1073      1283      1889      1888      1148      1891      1890      1834
 -1      1034    6    0    1
 -2       108      1078       522       548      1160      1892       621       554      1802       582
 -1      1035    6    0    1
 -2        64       363      1076       337       369      1801      1141       400       397      1893
 -1      1036    6    0    1
 -2       900       729       716      1271      1797       801      1819      1749      1798      1735
 -1      1037    6    0    1
 -2       719       356       349      1271      1846       423      1620      1401      1848      1622
 -1      1038    6    0    1
 -2       178        20      1078       152       184      1121      1806       212       216      1894
 -1      1039    6    0    1
 -2       899       887       517      1280       981      1895      1874      1875      1883      1771
 -1      1040    6    0    1
 -2       904       718       911      1267      1667      1867       995      1402      1666      1868
 -1      1041    6    0    1
 -2      1265       169       154      1292      1762       269      1457      1526      1763      1525
 -1      1042    6    0    1
 -2       706       890       123       920      1896      1005       803      1828       971       933
 -1      1043    6    0    1
 -2       520       550      1076       112       601      1826      1897       635       560      1172
 -1      1044    6    0    1
 -2       336        90       890       920       449       970      1898      1825       931       971
 -1      1045    6    0    1
 -2       353       326       342      1261       453       464       466      1759      1785      1789
 -1      1046    6    0    1
 -2       150       176      1281      1285       228      1618      1885      1899      1635      1636
 -1      1047    6    0    1
 -2      1087      1071      1091      1287      1131      1244      1223      1341      1577      1724
 -1      1048    6    0    1
 -2      1088       535      1098      1272      1484      1856      1163      1483      1482      1857
 -1      1049    6    0    1
 -2       350      1096      1089      1273      1860      1145      1501      1502      1862      1503
 -1      1050    6    0    1
 -2       343       334      1073      1283       408      1870      1888      1890      1776      1834
 -1      1051    6    0    1
 -2       167       155       141      1277       274       272       275      1842      1900      1695
 -1      1052    6    0    1
 -2       889       903       332      1291       965      1901      1778      1780      1902      1779
 -1      1053    6    0    1
 -2       154       141       169      1265       267       270       269      1457      1694      1762
 -1      1054    6    0    1
 -2       332       903       348      1291      1901      1903       445      1779      1902      1904
 -1      1055    6    0    1
 -2       168       157       141      1277       281       280       268      1696      1428      1695
 -1      1056    6    0    1
 -2       156       147       169      1279       320       321       278      1338      1766      1761
 -1      1057    6    0    1
 -2       132      1084       704       714      1181      1573       814       812      1572       813
 -1      1058    6    0    1
 -2       905       883       886      1279      1031      1029      1030      1422      1732      1865
 -1      1059    6    0    1
 -2       512       541       521      1269       652       585       653      1594      1682      1831
 -1      1060    6    0    1
 -2      1269       899       531      1280      1906      1873      1905      1685      1875      1876
 -1      1061    6    0    1
 -2      1090      1074       720       132      1185      1725      1726      1179      1183       808
 -1      1062    6    0    1
 -2       326      1261      1275      1284      1785      1603      1786      1830      1546      1907
 -1      1063    6    0    1
 -2       141       156       169      1265       277       278       270      1694      1557      1762
 -1      1064    6    0    1
 -2       916       706       729      1271      1908       802      1796      1799      1909      1798
 -1      1065    6    0    1
 -2       916       890       706      1271      1004      1896      1908      1799      1910      1909
 -1      1066    6    0    1
 -2      1072      1088       535       110      1168      1484      1709      1167      1161       624
 -1      1067    6    0    1
 -2       715       710       699      1281       858       860       859      1911      1703      1704
 -1      1068    6    0    1
 -2      1282      1083      1070      1283      1912      1242      1737      1599      1891      1739
 -1      1069    6    0    1
 -2       359       336       915      1271       450      1913      1836      1839      1914      1838
 -1      1070    6    0    1
 -2      1078       170      1097      1272      1916      1915      1122      1918      1917      1919
 -1      1071    6    0    1
 -2       146       162       532        11       206      1589      1734       205       199       570
 -1      1072    6    0    1
 -2       710       721       696      1278       826       828       827      1711      1753      1742
 -1      1073    6    0    1
 -2       915       336       890      1271      1913      1898       969      1838      1914      1910
 -1      1074    6    0    1
 -2       540       522      1078      1272       622      1892      1920      1858      1921      1918
 -1      1075    6    0    1
 -2       152       170      1078      1272       215      1916      1894      1922      1917      1918
 -1      1076    6    0    1
 -2       355       337      1076      1273       401      1893      1923      1861      1924      1925
 -1      1077    6    0    1
 -2       895       881      1262      1288      1013      1624      1562      1563      1744      1564
 -1      1078    6    0    1
 -2       160       146       530        11       204      1718      1435       203       205       572
 -1      1079    6    0    1
 -2       883       897       886      1279      1028       944      1029      1732      1730      1865
 -1      1080    6    0    1
 -2      1083      1073       343        66      1148      1888      1889      1147      1149       405
 -1      1081    6    0    1
 -2       334      1089       350        66      1851      1501       409       407      1143       403
 -1      1082    6    0    1
 -2       918        86       892       366       928       956       957      1369       372      1368
 -1      1083    6    0    1
 -2      1076       547      1099      1273      1926      1816      1173      1925      1817      1818
 -1      1084    6    0    1
 -2       160       146       155      1274       204       318       303      1440      1719      1927
 -1      1085    6    0    1
 -2       342       352       334      1283       465       510       509      1790      1595      1776
 -1      1086    6    0    1
 -2        99       899       517       531       980      1874       612       610      1873       611
 -1      1087    6    0    1
 -2       336       726       706      1271      1928       770      1886      1914      1849      1909
 -1      1088    6    0    1
 -2       121       900       716      1286       997      1819       795      1929      1750      1736
 -1      1089    6    0    1
 -2       520       547      1076      1273       634      1926      1897      1930      1817      1925
 -1      1090    6    0    1
 -2       542       172      1268      1294      1933      1931      1932      1935      1934      1936
 -1      1091    6    0    1
 -2       146       532       516        11      1734       576      1733       205       570       574
 -1      1092    6    0    1
 -2       704       720      1074       132       815      1725      1465       814       808      1183
 -1      1093    6    0    1
 -2       145       168       159      1281       315       316       317      1360      1937      1938
 -1      1094    6    0    1
 -2      1074      1084       704       132      1184      1573      1465      1183      1181       814
 -1      1095    6    0    1
 -2       343      1073       334        66      1888      1870       408       405      1149       407
 -1      1096    6    0    1
 -2       334      1073      1089        66      1870      1150      1851       407      1149      1143
 -1      1097    6    0    1
 -2       907       894       881      1288      1009      1007      1010      1699      1627      1744
 -1      1098    6    0    1
 -2      1071        22       165      1087      1129       217      1576      1131      1125      1339
 -1      1099    6    0    1
 -2      1267       171       727      1293      1941      1939      1940      1943      1942      1944
 -1      1100    6    0    1
 -2       146       516       530        11      1733       575      1718       205       574       572
 -1      1101    6    0    1
 -2       716       702       121      1286       796       797       795      1736      1887      1929
 -1      1102    6    0    1
 -2      1269       884       899      1280      1686      1040      1906      1685      1664      1875
 -1      1103    6    0    1
 -2       715       701       159        33       759      1768      1945       758       760       240
 -1      1104    6    0    1
 -2       101       892       549       918       988      1366       563       930       957      1367
 -1      1105    6    0    1
 -2       913       902       882      1268       978      1027      1020      1795      1335      1509
 -1      1106    6    0    1
 -2       913       543      1268      1294      1792      1794      1795      1947      1946      1936
 -1      1107    6    0    1
 -2      1086      1072      1094      1276      1166      1246      1214      1481      1710      1721
 -1      1108    6    0    1
 -2       895       881       906      1262      1013      1012      1011      1562      1624      1473
 -1      1109    6    0    1
 -2       886       147       897        44      1864      1863       944       945       259       943
 -1      1110    6    0    1
 -2      1071       165        22       149      1576       217      1129      1948       224       223
 -1      1111    6    0    1
 -2       899       517       887        99      1874      1895       981       980       612       982
 -1      1112    6    0    1
 -2      1267       917       174      1293      1823      1820      1822      1943      1949      1950
 -1      1113    6    0    1
 -2       110       519      1072       529       628      1743      1167       626       629      1720
 -1      1114    6    0    1
 -2       148       159       701        33       241      1768      1767       242       240       760
 -1      1115    6    0    1
 -2       519      1072       535       110      1743      1709       630       628      1167       624
 -1      1116    6    0    1
 -2       540      1078      1098      1272      1920      1159      1855      1858      1918      1857
 -1      1117    6    0    1
 -2       148       701       164        33      1767      1754       243       242       760       236
 -1      1118    6    0    1
 -2       355      1076      1096      1273      1923      1140      1859      1861      1925      1862
 -1      1119    6    0    1
 -2      1072      1088      1081      1276      1168      1220      1245      1710      1486      1642
 -1      1120    6    0    1
 -2       341       326      1275      1284       462      1786      1951      1952      1830      1907
 -1      1121    6    0    1
 -2       173       912      1268      1294      1811      1813      1814      1954      1953      1936
 -1      1122    6    0    1
 -2       720       699       722      1260       863       861       862      1727      1702      1807
 -1      1123    6    0    1
 -2      1069      1090      1092      1260      1233      1232      1231      1810      1728      1809
 -1      1124    6    0    1
 -2       147       161       897        44       258      1877      1863       259       257       943
 -1      1125    6    0    1
 -2       110      1072      1086       529      1167      1166      1165       626      1720      1477
 -1      1126    6    0    1
 -2       701       717       164        33       761      1601      1754       760       754       236
 -1      1127    6    0    1
 -2       531       517       539      1280       611       691       659      1876      1771      1581
 -1      1128    6    0    1
 -2       912       893       882      1268       936      1018      1019      1813      1955      1509
 -1      1129    6    0    1
 -2       332        88       903       889       444       958      1901      1778       964       965
 -1      1130    6    0    1
 -2       882       893       913      1268      1018       974      1020      1509      1955      1795
 -1      1131    6    0    1
 -2       348        88       903       332       438       958      1903       445       444      1901
 -1      1132    6    0    1
 -2       530       545       514      1272       579       672       673      1437      1783      1507
 -1      1133    6    0    1
 -2       175       160       144      1272       209       304       302      1784      1436      1956
 -1      1134    6    0    1
 -2       360       329       345      1273       487       488       394      1958      1957      1533
 -1      1135    6    0    1
 -2      1070      1083      1093      1283      1242      1241      1240      1739      1891      1693
 -1      1136    6    0    1
 -2       517       526       539      1280       690       648       691      1771      1444      1581
 -1      1137    6    0    1
 -2       901       912       882      1268       941      1019      1023      1654      1813      1509
 -1      1138    6    0    1
 -2       546       515       520      1273       680       679       600      1959      1500      1930
 -1      1139    6    0    1
 -2       121       888       900      1286       999       998       997      1929      1960      1750
 -1      1140    6    0    1
 -2       529       547       515      1273       633       681       682      1479      1817      1500
 -1      1141    6    0    1
 -2      1282       343      1083      1283      1961      1889      1912      1599      1890      1891
 -1      1142    6    0    1
 -2       540       514       522      1272       671       670       622      1858      1507      1921
 -1      1143    6    0    1
 -2       144       170       152      1272       301       215       300      1956      1917      1922
 -1      1144    6    0    1
 -2       142       171       164      1267       283       238       286      1881      1941      1537
 -1      1145    6    0    1
 -2       355       329       337      1273       486       485       401      1861      1957      1924
 -1      1146    6    0    1
 -2       534       524       518      1290       656       692       595      1522      1962      1963
 -1      1147    6    0    1
 -2       336       356       726      1271       418      1847      1928      1914      1848      1849
 -1      1148    6    0    1
 -2       904       908       888      1286      1035      1063      1000      1403      1393      1960
 -1      1149    6    0    1
 -2       545       522       514      1272       580       670       672      1783      1921      1507
 -1      1150    6    0    1
 -2       144       152       175      1272       300       210       302      1956      1922      1784
 -1      1151    6    0    1
 -2       337       329       360      1273       485       487       395      1924      1957      1958
 -1      1152    6    0    1
 -2       708       728       698      1267       789       848       846      1964      1869      1611
 -1      1153    6    0    1
 -2       727       708       698      1267       751       846       847      1940      1964      1611
 -1      1154    6    0    1
 -2       515       547       520      1273       681       634       679      1500      1817      1930
 -1      1155    6    0    1
 -2       901       896       886      1279      1021      1058       946      1655      1659      1865
 -1      1156    6    0    1
 -2       698       717       727      1267       854       756       847      1611      1600      1940
 -1      1157    6    0    1
 -2       513       543       523      1268       663       604       661      1965      1794      1966
 -1      1158    6    0    1
 -2       163       143       173      1268       295       293       255      1351      1296      1814
 -1      1159    6    0    1
 -2       533       543       513      1268       608       663       664      1583      1794      1965
 -1      1160    6    0    1
 -2       146       162       166      1274       206       298       319      1719      1591      1745
 -1      1161    6    0    1
 -2       728       718       698      1267       793       850       848      1869      1666      1611
 -1      1162    6    0    1
 -2       528       515       546      1273       687       680       598      1532      1500      1959
 -1      1163    6    0    1
 -2       892        86       338       366       956       437      1511      1368       372       383
 -1      1164    6    0    1
 -2       540       535       514      1272       625       678       671      1858      1482      1507
 -1      1165    6    0    1
 -2       165       170       144      1272       219       301       308      1312      1917      1956
 -1      1166    6    0    1
 -2       329       355       350      1273       486       404       493      1957      1861      1502
 -1      1167    6    0    1
 -2       887       884       906      1280      1039      1042      1041      1883      1664      1476
 -1      1168    6    0    1
 -2       161       174       142      1267       263       284       290      1878      1822      1881
 -1      1169    6    0    1
 -2       346       327       359      1271       475       469       448      1325      1323      1839
 -1      1170    6    0    1
 -2       716       729       697      1271       801       839       845      1735      1798      1349
 -1      1171    6    0    1
 -2      1098      1078      1068      1272      1159      1216      1218      1857      1918      1553
 -1      1172    6    0    1
 -2      1076      1067      1096      1273      1208      1207      1140      1925      1469      1862
 -1      1173    6    0    1
 -2       727       708      1267      1293       751      1964      1940      1944      1967      1943
 -1      1174    6    0    1
 -2       339       353       333      1270       452       508       507      1760      1715      1788
 -1      1175    6    0    1
 -2       327       356       336      1271       467       418       468      1323      1848      1914
 -1      1176    6    0    1
 -2       726       697       706      1271       838       837       770      1849      1349      1909
 -1      1177    6    0    1
 -2      1088      1098      1068      1272      1163      1218      1219      1483      1857      1553
 -1      1178    6    0    1
 -2       353       344       333      1270       501       426       508      1715      1628      1788
 -1      1179    6    0    1
 -2      1096      1067      1089      1273      1207      1210      1145      1862      1469      1503
 -1      1180    6    0    1
 -2       513       523       542      1268       661       567       662      1965      1966      1932
 -1      1181    6    0    1
 -2       359       327       336      1271       469       468       450      1839      1323      1914
 -1      1182    6    0    1
 -2       706       697       729      1271       837       839       802      1909      1349      1798
 -1      1183    6    0    1
 -2       356       327       349      1271       467       470       423      1848      1323      1622
 -1      1184    6    0    1
 -2       719       697       726      1271       841       838       775      1401      1349      1849
 -1      1185    6    0    1
 -2       326       340       352      1284       456       460       459      1830      1632      1545
 -1      1186    6    0    1
 -2       142       161      1267      1292       290      1878      1881      1882      1968      1541
 -1      1187    6    0    1
 -2       892       549       521       101      1366       587      1698       988       563       617
 -1      1188    6    0    1
 -2      1268       893       913      1294      1955       974      1795      1936      1969      1947
 -1      1189    6    0    1
 -2       172       143       162      1268       292       299       201      1931      1296      1588
 -1      1190    6    0    1
 -2       542       532       513      1268       571       669       662      1932      1587      1965
 -1      1191    6    0    1
 -2       339       354       326      1275       455       454       451      1787      1708      1786
 -1      1192    6    0    1
 -2       701       717       721      1278       761       853       874      1755      1602      1753
 -1      1193    6    0    1
 -2      1097      1087      1068      1272      1126      1224      1217      1919      1340      1553
 -1      1194    6    0    1
 -2      1099      1086      1067      1273      1171      1215      1209      1818      1478      1469
 -1      1195    6    0    1
 -2      1078      1097      1068      1272      1122      1217      1216      1918      1919      1553
 -1      1196    6    0    1
 -2       348       358       328      1291       440       478       479      1904      1970      1669
 -1      1197    6    0    1
 -2       915       890       885      1271       969      1049      1050      1838      1910      1638
 -1      1198    6    0    1
 -2      1076      1099      1067      1273      1173      1209      1208      1925      1818      1469
 -1      1199    6    0    1
 -2      1268       543       523      1294      1794       604      1966      1936      1946      1971
 -1      1200    6    0    1
 -2       341       351       326      1284       461       458       462      1952      1972      1830
 -1      1201    6    0    1
 -2       912       893      1268      1294       936      1955      1813      1953      1969      1936
 -1      1202    6    0    1
 -2       720       722       704      1260       862       880       815      1727      1807      1466
 -1      1203    6    0    1
 -2      1090      1074      1092      1260      1185      1250      1232      1728      1467      1809
 -1      1204    6    0    1
 -2       891       917      1267      1293       950      1823      1973      1974      1949      1943
 -1      1205    6    0    1
 -2       708       728      1267      1293       789      1869      1964      1967      1975      1943
 -1      1206    6    0    1
 -2       520        57       546       337       599       596       600      1880       396      1976
 -1      1207    6    0    1
 -2       523       542      1268      1294       567      1932      1966      1971      1935      1936
 -1      1208    6    0    1
 -2       885       916       900      1271      1051      1003      1053      1638      1799      1749
 -1      1209    6    0    1
 -2       706       123       890       916       803      1005      1896      1908      1001      1004
 -1      1210    6    0    1
 -2       885       890       916      1271      1049      1004      1051      1638      1910      1799
 -1      1211    6    0    1
 -2       546        57       360       337       596       393      1977      1976       396       395
 -1      1212    6    0    1
 -2       892       544       521      1269      1978       618      1698      1832      1979      1831
 -1      1213    6    0    1
 -2       728       911      1267      1293      1866      1868      1869      1975      1980      1943
 -1      1214    6    0    1
 -2       915       885       898      1271      1050      1057       968      1838      1638      1837
 -1      1215    6    0    1
 -2       108       522      1078       540       621      1892      1160       619       622      1920
 -1      1216    6    0    1
 -2       337      1076        64       355      1893      1141       400       401      1923       398
 -1      1217    6    0    1
 -2      1078        20       170       152      1121       214      1916      1894       216       215
 -1      1218    6    0    1
 -2       336       890        90       915      1898       970       449      1913       969       966
 -1      1219    6    0    1
 -2       899       884       887      1280      1040      1039       981      1875      1664      1883
 -1      1220    6    0    1
 -2       906       909       887      1280      1060      1059      1041      1476      1310      1883
 -1      1221    6    0    1
 -2       520      1076       547       112      1897      1926       634       635      1172       632
 -1      1222    6    0    1
 -2      1265      1258      1279      1292      1496      1423      1558      1526      1748      1764
 -1      1223    6    0    1
 -2       888       908       894      1286      1063      1062      1061      1960      1393      1626
 -1      1224    6    0    1
 -2       916       706       123       729      1908       803      1001      1796       802       799
 -1      1225    6    0    1
 -2       142       164       154      1292       286       285       287      1882      1540      1525
 -1      1226    6    0    1
 -2       336       726        75       706      1928       769       419      1886       770       771
 -1      1227    6    0    1
 -2       917       897       883      1267       949      1028      1034      1823      1729      1677
 -1      1228    6    0    1
 -2       911       883       904      1267      1033      1037       995      1868      1677      1402
 -1      1229    6    0    1
 -2      1267       911       891      1293      1868       991      1973      1943      1980      1974
 -1      1230    6    0    1
 -2       895       907       881      1288      1014      1010      1013      1563      1699      1744
 -1      1231    6    0    1
 -2       915        90       336       359       966       449      1913      1836       446       450
 -1      1232    6    0    1
 -2        20       170      1097      1078       214      1915      1119      1121      1916      1122
 -1      1233    6    0    1
 -2       895       889      1288      1291      1064      1777      1563      1567      1780      1566
 -1      1234    6    0    1
 -2       900       888       894      1286       998      1061      1052      1750      1960      1626
 -1      1235    6    0    1
 -2      1076      1099       547       112      1173      1816      1926      1172      1169       632
 -1      1236    6    0    1
 -2       891       917       883      1267       950      1034      1032      1973      1823      1677
 -1      1237    6    0    1
 -2       342       334       343      1283       509       408       498      1790      1776      1890
 -1      1238    6    0    1
 -2       891       883       911      1267      1032      1033       991      1973      1677      1868
 -1      1239    6    0    1
 -2       518       538       528      1290       693       686       593      1963      1656      1536
 -1      1240    6    0    1
 -2       355      1076        64      1096      1923      1141       398      1859      1140      1139
 -1      1241    6    0    1
 -2       540      1078       108      1098      1920      1160       619      1855      1159      1158
 -1      1242    6    0    1
 -2       713       723       703      1270       871       878       778      1639      1679      1871
 -1      1243    6    0    1
 -2       884       903       895      1291      1047      1046      1048      1665      1902      1567
 -1      1244    6    0    1
 -2       726        75       356       336       769       417      1847      1928       419       418
 -1      1245    6    0    1
 -2       905       886       896      1279      1030      1058      1015      1422      1865      1659
 -1      1246    6    0    1
 -2      1091      1066      1081      1287      1198      1202      1201      1724      1981      1644
 -1      1247    6    0    1
 -2       167       141       157      1277       275       280       279      1842      1695      1428
 -1      1248    6    0    1
 -2       724       702       716      1286       876       796       844      1353      1887      1736
 -1      1249    6    0    1
 -2       511       538       524      1290       638       637       636      1804      1656      1962
 -1      1250    6    0    1
 -2       724       711       702      1286       833       875       876      1353      1561      1887
 -1      1251    6    0    1
 -2       914       544       892      1269      1982      1978       987      1983      1979      1832
 -1      1252    6    0    1
 -2      1080      1066      1091      1287      1196      1198      1197      1984      1981      1724
 -1      1253    6    0    1
 -2       332       341      1275      1291       505      1951      1690      1779      1791      1845
 -1      1254    6    0    1
 -2       898       907       889      1288      1056      1065       963      1872      1699      1777
 -1      1255    6    0    1
 -2       544       914       899      1269      1982       986      1985      1979      1983      1906
 -1      1256    6    0    1
 -2       903       889       895      1291       965      1064      1046      1902      1780      1567
 -1      1257    6    0    1
 -2       326       354       341      1275       454       463       462      1786      1708      1951
 -1      1258    6    0    1
 -2       892       521       544       101      1698       618      1978       988       617       614
 -1      1259    6    0    1
 -2       730       177       159      1281      1987       246      1986      1989      1988      1938
 -1      1260    6    0    1
 -2      1083      1101       361      1282      1153      1990      1991      1912      1992      1993
 -1      1261    6    0    1
 -2       703       723       709      1270       878       821       877      1871      1679      1498
 -1      1262    6    0    1
 -2       531       544       899      1269       616      1985      1873      1905      1979      1906
 -1      1263    6    0    1
 -2        86       338       358       892       437       436       435       956      1511      1994
 -1      1264    6    0    1
 -2       735      1105       134      1289      1995      1118       745      1997      1996      1998
 -1      1265    6    0    1
 -2       365       735        79      1289      1999       743       375      2000      1997      2001
 -1      1266    6    0    1
 -2        68      1105       365      1289      1117      2002       373      2003      1996      2000
 -1      1267    6    0    1
 -2       351       340       326      1284       457       456       458      1972      1632      1830
 -1      1268    6    0    1
 -2       521       544       512      1269       618       654       653      1831      1979      1594
 -1      1269    6    0    1
 -2       341       348       328      1291       480       479       481      1791      1904      1669
 -1      1270    6    0    1
 -2      1075      1105        68      1289      1156      1117      1154      1854      1996      2003
 -1      1271    6    0    1
 -2        68       365       335      1289       373       415       414      2003      2000      1844
 -1      1272    6    0    1
 -2        79       735       705      1289       743       786       785      2001      1997      2004
 -1      1273    6    0    1
 -2       335       365        79      1289       415       375       432      1844      2000      2001
 -1      1274    6    0    1
 -2      1075       134      1105      1289      1190      1118      1156      1854      1998      1996
 -1      1275    6    0    1
 -2       735       134       705      1289       745       820       786      1997      1998      2004
 -1      1276    6    0    1
 -2       921       551        97      1294      2005       557       924      2007      2006      2008
 -1      1277    6    0    1
 -2       181       921        42      1294      2009       922       187      2010      2007      2011
 -1      1278    6    0    1
 -2         9       551       181      1294       556      2012       185      2013      2006      2010
 -1      1279    6    0    1
 -2       921        97       893      1294       924       975       938      2007      2008      1969
 -1      1280    6    0    1
 -2       921       893        42      1294       938       937       922      2007      1969      2011
 -1      1281    6    0    1
 -2       179       736        31      1293      2014       740       191      2016      2015      2017
 -1      1282    6    0    1
 -2       354       332       341      1275       506       505       463      1708      1690      1951
 -1      1283    6    0    1
 -2      1073      1079      1093      1283      1247      1192      1248      1834      1648      1693
 -1      1284    6    0    1
 -2       736       919       119      1293      2018       927       742      2015      2019      2020
 -1      1285    6    0    1
 -2        46       919       179      1293       925      2021       193      2022      2019      2016
 -1      1286    6    0    1
 -2        97       551       523      1294       557       568       605      2008      2006      1971
 -1      1287    6    0    1
 -2        42       153       181      1294       252       198       187      2011      2023      2010
 -1      1288    6    0    1
 -2       730       159       715      1281      1986      1945       764      1989      1938      1911
 -1      1289    6    0    1
 -2      1083       361       343      1282      1991       412      1889      1912      1993      1961
 -1      1290    6    0    1
 -2       699       707       730      1281       855       765       857      1704      2024      1989
 -1      1291    6    0    1
 -2       179        31       151      1293       191       234       235      2016      2017      2025
 -1      1292    6    0    1
 -2       523       551         9      1294       568       556       566      1971      2006      2013
 -1      1293    6    0    1
 -2       181       153         9      1294       198       197       185      2010      2023      2013
 -1      1294    6    0    1
 -2        31       736       708      1293       740       753       752      2017      2015      1967
 -1      1295    6    0    1
 -2       180      1103        24      1285      2026      1110       188      2028      2027      2029
 -1      1296    6    0    1
 -2        35       733       180      1285       737      2030       190      2032      2031      2028
 -1      1297    6    0    1
 -2       733       130      1103      1285       739      1112      2033      2031      2034      2027
 -1      1298    6    0    1
 -2       736       119       708      1293       742       790       753      2015      2020      1967
 -1      1299    6    0    1
 -2       151        46       179      1293       265       193       235      2025      2022      2016
 -1      1300    6    0    1
 -2       735       365      1105      1289      1999      2002      1995      1997      2000      1996
 -1      1301    6    0    1
 -2       892       544       914       101      1978      1982       987       988       614       984
 -1      1302    6    0    1
 -2      1282      1101       361      1289      1992      1990      1993      1455      2035      2036
 -1      1303    6    0    1
 -2        35       180       150      1285       190       230       248      2032      2028      1899
 -1      1304    6    0    1
 -2       180        24       150      1285       188       229       230      2028      2029      1899
 -1      1305    6    0    1
 -2       707       733        35      1285       767       737       766      2037      2031      2032
 -1      1306    6    0    1
 -2        24      1103      1077      1285      1110      1137      1136      2029      2027      1756
 -1      1307    6    0    1
 -2       512       544       531      1269       654       616       660      1594      1979      1905
 -1      1308    6    0    1
 -2       330       361       335      1282       494       413       495      1631      1993      1843
 -1      1309    6    0    1
 -2       545       160        12       175      1781       202       577      1782       209       208
 -1      1310    6    0    1
 -2       733       707       130      1285       767       807       739      2031      2037      2034
 -1      1311    6    0    1
 -2      1103       130      1077      1285      1112      1176      1137      2027      2034      1756
 -1      1312    6    0    1
 -2      1075      1101      1070      1282      1155      1235      1234      1852      1992      1737
 -1      1313    6    0    1
 -2       900       729       916       122      1797      1796      1003       996       800      1002
 -1      1314    6    0    1
 -2        10       532       162        11       569      1589       200        16       570       199
 -1      1315    6    0    1
 -2       160       530        12        11      1435       573       202       203       572        17
 -1      1316    6    0    1
 -2       145       177       150      1281       311       247       309      1360      1988      1885
 -1      1317    6    0    1
 -2      1083      1073      1093      1283      1148      1248      1241      1891      1834      1693
 -1      1318    6    0    1
 -2       730       177      1281      1285      1987      1988      1989      2039      2038      1636
 -1      1319    6    0    1
 -2       181       551       921      1294      2012      2005      2009      2010      2006      2007
 -1      1320    6    0    1
 -2       542         9       172      1294       564       195      1933      1935      2013      1934
 -1      1321    6    0    1
 -2       169       161       142      1292       289       290       288      1763      1968      1882
 -1      1322    6    0    1
 -2        43       173       912       163       249      1811       934       254       255      1812
 -1      1323    6    0    1
 -2       119       919       891      1293       927       952       992      2020      2019      1974
 -1      1324    6    0    1
 -2        99       100       899       531       105       979       980       610       609      1873
 -1      1325    6    0    1
 -2       332       348       341      1291       445       480       505      1779      1904      1791
 -1      1326    6    0    1
 -2       726       719       356        76       775      1846      1847       768       774       416
 -1      1327    6    0    1
 -2       902       543       913        98      1793      1792       978       977       602       972
 -1      1328    6    0    1
 -2       345       360       546        56       394      1977      2040       388       392       597
 -1      1329    6    0    1
 -2        46       891       919      1293       951       952       925      2022      1974      2019
 -1      1330    6    0    1
 -2      1087        22       165        21      1125       217      1339      1124        27       218
 -1      1331    6    0    1
 -2       346        88       898        89       442       962      1884       441        94       961
 -1      1332    6    0    1
 -2      1090       720       131       132      1726       809      1178      1179       808       137
 -1      1333    6    0    1
 -2       345       528        55        56      1531       592       387       388       591        61
 -1      1334    6    0    1
 -2       715       159        34        33      1945       239       757       758       240        39
 -1      1335    6    0    1
 -2        78       344       713        77       424      1640       776        83       425       777
 -1      1336    6    0    1
 -2        78       731       344       362       782      1634       424       430      1452       431
 -1      1337    6    0    1
 -2      1095       725       131      1090      2041       804      1175      1180      1774      1178
 -1      1338    6    0    1
 -2        86       358       910       892       435      2042       954       956      1994       955
 -1      1339    6    0    1
 -2       884       914       892      1269      1045       987      1043      1686      1983      1832
 -1      1340    6    0    1
 -2        54       534        55       347       589       588        60       384      1520       385
 -1      1341    6    0    1
 -2       164       717        32        33      1601       755       237       236       754        38
 -1      1342    6    0    1
 -2        65       350      1089        66       402      1501      1144        71       403      1143
 -1      1343    6    0    1
 -2      1088       109       535       110      1162       623      1484      1161       115       624
 -1      1344    6    0    1
 -2       121       900       122       716       997       996       127       795      1819       794
 -1      1345    6    0    1
 -2       361        67      1101      1083       410      1152      1990      1991      1146      1153
 -1      1346    6    0    1
 -2       529      1086       110       111      1477      1165       626       627      1164       116
 -1      1347    6    0    1
 -2        23       158      1085        22       220      1688      1128        28       221      1127
 -1      1348    6    0    1
 -2      1083       343        67        66      1889       406      1146      1147       405        72
 -1      1349    6    0    1
 -2       715       699       730      1281       859       857       764      1911      1704      1989
 -1      1350    6    0    1
 -2        98       902       533        99       977      1582       607       104       976       606
 -1      1351    6    0    1
 -2       349       719        77        76      1620       773       421       422       774        82
 -1      1352    6    0    1
 -2      1075      1101      1282      1289      1155      1992      1852      1854      2035      1455
 -1      1353    6    0    1
 -2        87        88       903       348        93       958       959       439       438      1903
 -1      1354    6    0    1
 -2       171        31       727      1293       232       750      1939      1942      2017      1944
 -1      1355    6    0    1
 -2       350      1096       355        65      1860      1859       404       402      1138       399
 -1      1356    6    0    1
 -2       109       535       540      1098       623       625       620      1157      1856      1855
 -1      1357    6    0    1
 -2       174       917        46      1293      1820       947       261      1950      1949      2022
 -1      1358    6    0    1
 -2       362        79       731      1289       429       781      1452      1454      2001      1453
 -1      1359    6    0    1
 -2       901        43       163        44       940       254      1653       939        49       253
 -1      1360    6    0    1
 -2       133       132       714      1084       138       812       811      1182      1181      1572
 -1      1361    6    0    1
 -2       361       335      1282      1289       413      1843      1993      2036      1844      1455
 -1      1362    6    0    1
 -2       343       361       330      1282       412       494       497      1961      1993      1631
 -1      1363    6    0    1
 -2       919       736       179      1293      2018      2014      2021      2019      2015      2016
 -1      1364    6    0    1
 -2       904       120       718       121       994       792      1667       993       126       791
 -1      1365    6    0    1
 -2       180       733      1103      1285      2030      2033      2026      2028      2031      2027
 -1      1366    6    0    1
 -2        68       361      1101      1289       411      1990      1151      2003      2036      2035
 -1      1367    6    0    1
 -2       913        97       543      1294       973       603      1792      1947      2008      1946
 -1      1368    6    0    1
 -2      1071      1080      1091      1287      1243      1197      1244      1577      1984      1724
 -1      1369    6    0    1
 -2        45       897       161        44       942      1877       256        50       943       257
 -1      1370    6    0    1
 -2        45       897       917       174       942       949       948       262      1821      1820
 -1      1371    6    0    1
 -2       134      1102       732      1289      1187      2043       816      1998      1853      2044
 -1      1372    6    0    1
 -2        31       708       727      1293       752       751       750      2017      1967      1944
 -1      1373    6    0    1
 -2       120       718       728       911       792       793       787       989      1867      1866
 -1      1374    6    0    1
 -2       146       166       155      1274       319       271       318      1719      1745      1927
 -1      1375    6    0    1
 -2       173        42       912      1294       250       935      1811      1954      2011      1953
 -1      1376    6    0    1
 -2       172         9       153      1294       195       197       196      1934      2013      2023
 -1      1377    6    0    1
 -2       542       523         9      1294       567       566       564      1935      1971      2013
 -1      1378    6    0    1
 -2      1281       707       730      1285      2024       765      1989      1636      2037      2039
 -1      1379    6    0    1
 -2       151       174        46      1293       264       261       265      2025      1950      2022
 -1      1380    6    0    1
 -2      1070      1101      1083      1282      1235      1153      1242      1737      1992      1912
 -1      1381    6    0    1
 -2       731        79       705      1289       781       785       784      1453      2001      2004
 -1      1382    6    0    1
 -2       335        79       362      1289       432       429       433      1844      2001      1454
 -1      1383    6    0    1
 -2      1075        68      1101      1289      1154      1151      1155      1854      2003      2035
 -1      1384    6    0    1
 -2       913       893        97      1294       974       975       973      1947      1969      2008
 -1      1385    6    0    1
 -2      1281       177       150      1285      1988       247      1885      1636      2038      1899
 -1      1386    6    0    1
 -2       351       331       340      1284       504       503       457      1972      1706      1632
 -1      1387    6    0    1
 -2        35       177       730      1285       244      1987       762      2032      2038      2039
 -1      1388    6    0    1
 -2      1081      1094      1072      1276      1203      1246      1245      1642      1721      1710
 -1      1389    6    0    1
 -2       349       356       719        76       423      1846      1620       422       416       774
 -1      1390    6    0    1
 -2      1075      1102       134      1289      1189      1187      1190      1854      1853      1998
 -1      1391    6    0    1
 -2       134       732       705      1289       816       819       820      1998      2044      2004
 -1      1392    6    0    1
 -2       335       361        68      1289       413       411       414      1844      2036      2003
 -1      1393    6    0    1
 -2       159       177       145      1281       246       311       317      1938      1988      1360
 -1      1394    6    0    1
 -2       163       912        43       901      1812       934       254      1653       941       940
 -1      1395    6    0    1
 -2        42       893       912      1294       937       936       935      2011      1969      1953
 -1      1396    6    0    1
 -2       176        24      1100      1285       225      1133      1616      1635      2029      1637
 -1      1397    6    0    1
 -2       543        97       523      1294       603       605       604      1946      2008      1971
 -1      1398    6    0    1
 -2       153        42       173      1294       252       250       251      2023      2011      1954
 -1      1399    6    0    1
 -2       151        31       171      1293       234       232       233      2025      2017      1942
 -1      1400    6    0    1
 -2       914       884       899      1269      1045      1040       986      1983      1686      1906
 -1      1401    6    0    1
 -2       160        12       530       545       202       573      1435      1781       577       579
 -1      1402    6    0    1
 -2       533       543       902        98       608      1793      1582       607       602       977
 -1      1403    6    0    1
 -2       701       721       710      1278       874       826       873      1755      1753      1711
 -1      1404    6    0    1
 -2        46       917       891      1293       947       950       951      2022      1949      1974
 -1      1405    6    0    1
 -2       122       900       729       716       996      1797       800       794      1819       801
 -1      1406    6    0    1
 -2       911       120       718       904       989       792      1867       995       994      1667
 -1      1407    6    0    1
 -2       343        67       361      1083       406       410       412      1889      1146      1991
 -1      1408    6    0    1
 -2       119       728       708      1293       788       789       790      2020      1975      1967
 -1      1409    6    0    1
 -2      1089      1096       350        65      1145      1860      1501      1144      1138       402
 -1      1410    6    0    1
 -2       130       725      1095      1285       805      2041      1174      2034      2045      1765
 -1      1411    6    0    1
 -2       167       157       149      1277       279       324       325      1842      1428      1841
 -1      1412    6    0    1
 -2      1098       109       535      1088      1157       623      1856      1163      1162      1484
 -1      1413    6    0    1
 -2       345       546       528        56      2040       598      1531       388       597       591
 -1      1414    6    0    1
 -2       731       344       713        78      1634      1640       783       782       424       776
 -1      1415    6    0    1
 -2       131       725       720      1090       804       810       809      1178      1774      1726
 -1      1416    6    0    1
 -2       918       549       101         6      1367       563       930       929       562       107
 -1      1417    6    0    1
 -2         6        86       918       366        91       928       929       370       372      1369
 -1      1418    6    0    1
 -2       181       551         9         2      2012       556       185       186       555        14
 -1      1419    6    0    1
 -2         6       549        53       366       562       561        58       370      1370       371
 -1      1420    6    0    1
 -2       736        31         4       179       740        36       741      2014       191       192
 -1      1421    6    0    1
 -2       734         8        75       364       747        80       746      1751       377       376
 -1      1422    6    0    1
 -2        46       919         4       179       925       926        52       193      2021       192
 -1      1423    6    0    1
 -2         4       919       119       736       926       927       124       741      2018       742
 -1      1424    6    0    1
 -2       889       907       895      1288      1065      1014      1064      1777      1699      1563
 -1      1425    6    0    1
 -2        45       161       897       174       256      1877       942       262       263      1821
 -1      1426    6    0    1
 -2      1100        24      1077      1285      1133      1136      1135      1637      2029      1756
 -1      1427    6    0    1
 -2       730       707        35      1285       765       766       762      2039      2037      2032
 -1      1428    6    0    1
 -2       911       728       119      1293      1866       788       990      1980      1975      2020
 -1      1429    6    0    1
 -2       169       142       154      1292       288       287       269      1763      1882      1525
 -1      1430    6    0    1
 -2       150       177        35      1285       247       244       248      1899      2038      2032
 -1      1431    6    0    1
 -2       178      1106        20         1      1805      1108       184       183      1107        25
 -1      1432    6    0    1
 -2         2       181       921        42       186      2009       923        47       187       922
 -1      1433    6    0    1
 -2       548       108      1106         1       554      1109      1803       553       113      1107
 -1      1434    6    0    1
 -2       921        97       551         2       924       557      2005       923       102       555
 -1      1435    6    0    1
 -2       363      1104         5        64      1800      1114       368       369      1113        69
 -1      1436    6    0    1
 -2       707       725       130      1285       806       805       807      2037      2045      2034
 -1      1437    6    0    1
 -2      1077       130      1095      1285      1176      1174      1177      1756      2034      1765
 -1      1438    6    0    1
 -2        24       176       150      1285       225       228       229      2029      1635      1899
 -1      1439    6    0    1
 -2      1104       550         5       112      1827       558      1114      1115       560       118
 -1      1440    6    0    1
 -2       734       123         8       920       748       129       747      1829       933       932
 -1      1441    6    0    1
 -2       364         8        90       920       377        96       378      1824       932       931
 -1      1442    6    0    1
 -2       911       119       891      1293       990       992       991      1980      2020      1974
 -1      1443    6    0    1
 -2         3       733       130      1103       738       739       135      1111      2033      1112
 -1      1444    6    0    1
 -2         1       178       548        13       183      1740       553        19       182       552
 -1      1445    6    0    1
 -2        24         3      1103       180        30      1111      1110       188       189      2026
 -1      1446    6    0    1
 -2       180         3       733        35       189       738      2030       190        41       737
 -1      1447    6    0    1
 -2       550         5        57       363       558        63       559      1746       368       367
 -1      1448    6    0    1
 -2         7      1105       134       735      1116      1118       140       744      1995       745
 -1      1449    6    0    1
 -2         7      1105       365        68      1116      2002       374        74      1117       373
 -1      1450    6    0    1
 -2       735         7       365        79       744       374      1999       743        85       375
 -1      1451    6    0    1
 -2         7       365      1105       735       374      2002      1116       744      1999      1995
 -1      1452    6    0    1
 -2      1103         3       733       180      1111       738      2033      2026       189      2030
 -1      1453    6    0    1
 -2      1104         5       550       363      1114       558      1827      1800       368      1746
 -1      1454    6    0    1
 -2       548      1106       178         1      1803      1805      1740       553      1107       183
 -1      1455    6    0    1
 -2       364       734         8       920      1751       747       377      1824      1829       932
 -1      1456    6    0    1
 -2       181       921       551         2      2009      2005      2012       186       923       555
 -1      1457    6    0    1
 -2       524       538       518      1290       637       693       692      1962      1656      1963
 -1      1458    6    0    1
 -2       736         4       919       179       741       926      2018      2014       192      2021
 -1      1459    6    0    1
 -2         6       918       549       366       929      1367       562       370      1369      1370
 -1      1460    6    0    1
 -2       542       172         9        10      1933       195       564       565       194        15
 -1      1461    6    0    1
 -2       545        12        13       175       577        18       578      1782       208       207
 -1      1462    6    0    1
 -2       729       123       916       122       799      1001      1796       800       128      1002
 -1      1463    6    0    1
 -2       174       917        45        46      1820       948       262       261       947        51
 -1      1464    6    0    1
 -2       546       360        57        56      1977       393       596       597       392        62
 -1      1465    6    0    1
 -2       730        34       177        35       763       245      1987       762        40       244
 -1      1466    6    0    1
 -2        21       170      1097        20       213      1915      1120        26       214      1119
 -1      1467    6    0    1
 -2        89        90       915       359        95       966       967       447       446      1836
 -1      1468    6    0    1
 -2       727        31       171        32       750       232      1939       749        37       231
 -1      1469    6    0    1
 -2       357        54       541        53       380       583      1681       379        59       584
 -1      1470    6    0    1
 -2      1100        24       176        23      1133       225      1616      1132        29       226
 -1      1471    6    0    1
 -2       111       547      1099       112       631      1816      1170       117       632      1169
 -1      1472    6    0    1
 -2       131       130       725      1095       136       805       804      1175      1174      2041
 -1      1473    6    0    1
 -2        78        79       731       362        84       781       782       430       429      1452
 -1      1474    6    0    1
 -2       361      1101        67        68      1990      1152       410       411      1151        73
 -1      1475    6    0    1
 -2       913       543        97        98      1792       603       973       972       602       103
 -1      1476    6    0    1
 -2       100       914       544       101       985      1982       615       106       984       614
 -1      1477    6    0    1
 -2       732       133      1102       134       817      1186      2043       816       139      1187
 -1      1478    6    0    1
 -2      1096        64       355        65      1139       398      1859      1138        70       399
 -1      1479    6    0    1
 -2       109       540       108      1098       620       619       114      1157      1855      1158
 -1      1480    6    0    1
 -2       726       356        75        76      1847       417       769       768       416        81
 -1      1481    6    0    1
 -2       173       912        42        43      1811       935       250       249       934        48
 -1      1482    6    0    1
 -2       120       728       119       911       787       788       125       989      1866       990
 -1      1483    6    0    1
 -2       910        87       358        86       953       434      2042       954        92       435
 -1      1484    6    0    1
 -2      1274       513      1253       536      2046      1609      1330      1329       667      1328
 -1      1485    6    0    1
 -2      1253       513      1274      1268      1609      2046      1330      1295      1965      1357
 -1      1486    6    0    1
 -2      1274       532       513       536      1590       669      2046      1329       668       667
 -1      1487    6    0    1
 -2       513       532      1274      1268       669      1590      2046      1965      1587      1357
 -1      1488    6    0    1
 -2       527      1273      1276       529      1499      1472      1407       683      1479      1480
 -1      1489    6    0    1
 -2      1273       527      1276      1256      1499      1407      1472      1468      1404      1409
 -1      1490    6    0    1
 -2       537      1276      1272       535      1418      1487      1508       677      1485      1482
 -1      1491    6    0    1
 -2      1272      1276       537      1255      1487      1418      1508      1303      1419      1417
 -1      1492    6    0    1
 -2       525      1272      1274       530      1514      1439      1365       674      1437      1438
 -1      1493    6    0    1
 -2      1272       525      1274      1255      1514      1365      1439      1303      1363      1364
 -1      1494    6    0    1
 -2       894      1258       908       905      2047      1392      1062      1006      1421      1038
 -1      1495    6    0    1
 -2       908      1258       894      1286      1392      2047      1062      1393      1394      1626
 -1      1496    6    0    1
 -2       894      1262      1258       905      1623      1320      2047      1006      1420      1421
 -1      1497    6    0    1
 -2      1258      1262       894      1286      1320      1623      2047      1394      1512      1626
 -1      1498    6    0    1
 -2      1262       909      1253       896      1474      1308      1516      1524      1024      1658
 -1      1499    6    0    1
 -2       909      1262      1253      1280      1474      1516      1308      1310      1475      1309
 -1      1500    6    0    1
 -2      1080      1260      1085      1069      1808      2048      1229      1230      1810      1228
 -1      1501    6    0    1
 -2      1085      1281      1260      1254      1689      1705      2048      2049      1770      1513
 -1      1502    6    0    1
 -2       898      1257       346      1271      2050      1321      1884      1837      1324      1325
 -1      1503    6    0    1
 -2      1257       898       346      1288      2050      1884      1321      1385      1872      1384
 -1      1504    6    0    1
 -2       885      1257       898      1271      1569      2050      1057      1638      1324      1837
 -1      1505    6    0    1
 -2      1257       885       898      1288      1569      1057      2050      1385      1570      1872
 -1      1506    6    0    1
 -2      1085      1277      1281      1254      2051      1429      1689      2049      1371      1770
 -1      1507    6    0    1
 -2      1277      1085      1281       158      2051      1689      1429      1427      1688      1359
 -1      1508    6    0    1
 -2       525       537      1272       514       645      1508      1514       675       676      1507
 -1      1509    6    0    1
 -2       537       525      1272      1255       645      1514      1508      1417      1363      1303
 -1      1510    6    0    1
 -2      1067      1273      1283      1089      1469      1505      2052      1210      1503      1504
 -1      1511    6    0    1
 -2      1273      1067      1283      1256      1469      2052      1505      1468      1470      1596
 -1      1512    6    0    1
 -2      1067      1283      1079      1089      2052      1648      1212      1210      1504      1211
 -1      1513    6    0    1
 -2      1283      1067      1079      1256      2052      1212      1648      1596      1470      1646
 -1      1514    6    0    1
 -2      1283       329      1256       352      2053      1578      1596      1595       491      1544
 -1      1515    6    0    1
 -2      1256       329      1283      1273      1578      2053      1596      1468      1957      1505
 -1      1516    6    0    1
 -2      1283       350       329       352      1506       493      2053      1595       492       491
 -1      1517    6    0    1
 -2       329       350      1283      1273       493      1506      2053      1957      1502      1505
 -1      1518    6    0    1
 -2      1290      1273       527       515      1535      1499      1604      1645      1500       684
 -1      1519    6    0    1
 -2       527      1273      1290      1256      1499      1535      1604      1404      1468      1605
 -1      1520    6    0    1
 -2       327      1270      1271      1257      2054      1350      1323      1322      1347      1324
 -1      1521    6    0    1
 -2      1270       327      1271       349      2054      1323      1350      1621       470      1622
 -1      1522    6    0    1
 -2       339      1270       327      1257      1760      2054       472      2055      1347      1322
 -1      1523    6    0    1
 -2      1270       339       327       349      1760       472      2054      1621       471       470
 -1      1524    6    0    1
 -2      1261       330       342       353      2056       499      1789      1759       500       466
 -1      1525    6    0    1
 -2      1270       330      1261       353      1629      2056      1410      1715       500      1759
 -1      1526    6    0    1
 -2       330      1270      1261      1282      1629      1410      2056      1631      1415      1413
 -1      1527    6    0    1
 -2       157      1281       168       145      1358      1937       281       314      1360       315
 -1      1528    6    0    1
 -2      1287      1272      1276      1068      1305      1487      1643      1608      1553      1554
 -1      1529    6    0    1
 -2      1272      1287      1276      1255      1305      1643      1487      1303      1304      1419
 -1      1530    6    0    1
 -2      1254      1277      1071      1085      1371      2057      2058      2049      2051      1130
 -1      1531    6    0    1
 -2      1071      1277      1254      1287      2057      1371      2058      1577      1306      1374
 -1      1532    6    0    1
 -2       345       329      1256      1273       488      1578      2059      1533      1957      1468
 -1      1533    6    0    1
 -2       329       345      1256      1284       488      2059      1578      1579      1633      1449
 -1      1534    6    0    1
 -2       345      1256      1290      1273      2059      1605      1534      1533      1468      1535
 -1      1535    6    0    1
 -2      1256       345      1290      1284      2059      1534      1605      1449      1633      1657
 -1      1536    6    0    1
 -2       168      1277      1281       157      1696      1429      1937       281      1428      1358
 -1      1537    6    0    1
 -2       513      1268      1280       533      1965      1311      2060       664      1583      1584
 -1      1538    6    0    1
 -2      1268       513      1280      1253      1965      2060      1311      1295      1609      1309
 -1      1539    6    0    1
 -2       513      1280       526       533      2060      1444       666       664      1584       665
 -1      1540    6    0    1
 -2      1280       513       526      1253      2060       666      1444      1309      1609      1388
 -1      1541    6    0    1
 -2      1272      1274      1277      1255      1439      2061      1302      1303      1364      1301
 -1      1542    6    0    1
 -2       920       734       336       364      1829      1752      1825      1824      1751       420
 -1      1543    6    0    1
 -2       548      1078       178      1106      1802      1806      1740      1803      1123      1805
 -1      1544    6    0    1
 -2       149      1277      1085      1071      1841      2051      2062      1948      2057      1130
 -1      1545    6    0    1
 -2      1085      1277       149       158      2051      1841      2062      1688      1427       222
 -1      1546    6    0    1
 -2        22       149      1085      1071       223      2062      1127      1129      1948      1130
 -1      1547    6    0    1
 -2      1085       149        22       158      2062       223      1127      1688       222       221
 -1      1548    6    0    1
 -2       550       363      1076      1104      1746      1801      1826      1827      1800      1142
 -1      1549    6    0    1
 -2      1251      1275      1284      1259      1551      1907      1447      1494      1607      1495
 -1      1550    6    0    1
 -2      1275      1251      1284      1261      1551      1447      1907      1603      1488      1546
 -1      1551    6    0    1
 -2      1282       732       700       714      2063       866      1652      1651       818       868
 -1      1552    6    0    1
 -2       732      1102      1282      1289      2043      1850      2063      2044      1853      1455
 -1      1553    6    0    1
 -2      1071      1277       165       149      2057      1313      1576      1948      1841       224
 -1      1554    6    0    1
 -2       165      1277      1071      1287      1313      2057      1576      1314      1306      1577
 -1      1555    6    0    1
 -2      1266      1259       539      1280      1493      2064      1580      1445      1548      1581
 -1      1556    6    0    1
 -2       539      1259      1266      1290      2064      1493      1580      2065      1523      1606
 -1      1557    6    0    1
 -2       336       920       706       734      1825      1828      1886      1752      1829       772
 -1      1558    6    0    1
 -2      1280       512      1259       539      2066      1593      1548      1581       658      2064
 -1      1559    6    0    1
 -2      1259       512      1280      1269      1593      2066      1548      1530      1594      1685
 -1      1560    6    0    1
 -2      1280       531       512       539      1876       660      2066      1581       659       658
 -1      1561    6    0    1
 -2       512       531      1280      1269       660      1876      2066      1594      1905      1685
 -1      1562    6    0    1
 -2       327       339      1275       354       472      1787      2067       473       455      1708
 -1      1563    6    0    1
 -2       339       327      1275      1257       472      2067      1787      2055      1322      1383
 -1      1564    6    0    1
 -2       327      1275       346       354      2067      1382       475       473      1708       474
 -1      1565    6    0    1
 -2      1275       327       346      1257      2067       475      1382      1383      1322      1321
 -1      1566    6    0    1
 -2       700       731      1282       713       865      1450      1652       872       783      1641
 -1      1567    6    0    1
 -2       905      1267       908       883      2068      1390      1038      1031      1677      1036
 -1      1568    6    0    1
 -2       908      1267       905      1258      1390      2068      1038      1392      1391      1421
 -1      1569    6    0    1
 -2       905      1279      1267       883      1422      1731      2068      1031      1732      1677
 -1      1570    6    0    1
 -2      1267      1279       905      1258      1731      1422      2068      1391      1423      1421
 -1      1571    6    0    1
 -2      1078       152       548       178      1894      1741      1802      1806       212      1740
 -1      1572    6    0    1
 -2       331      1259       351       347      2069      1614       504       391      1518       483
 -1      1573    6    0    1
 -2       351      1259       331      1284      1614      2069       504      1972      1495      1706
 -1      1574    6    0    1
 -2       331      1290      1259       347      1707      1523      2069       391      1521      1518
 -1      1575    6    0    1
 -2      1259      1290       331      1284      1523      1707      2069      1495      1657      1706
 -1      1576    6    0    1
 -2      1076       550       337       363      1826      1747      1893      1801      1746       397
 -1      1577    6    0    1
 -2      1071      1260      1287      1254      2070      1723      1577      2058      1513      1374
 -1      1578    6    0    1
 -2      1260      1071      1287      1080      2070      1577      1723      1808      1243      1984
 -1      1579    6    0    1
 -2      1085      1260      1071      1254      2048      2070      1130      2049      1513      2058
 -1      1580    6    0    1
 -2      1260      1085      1071      1080      2048      1130      2070      1808      1229      1243
 -1      1581    6    0    1
 -2       711      1278       698      1258      1610      1613       851      1560      1497      1612
 -1      1582    6    0    1
 -2       698      1278       711       721      1613      1610       851       852      1753       831
 -1      1583    6    0    1
 -2       698      1286      1267       718      2071      1395      1611       850      1668      1666
 -1      1584    6    0    1
 -2      1267      1286       698      1258      1395      2071      1611      1391      1394      1612
 -1      1585    6    0    1
 -2       698       711      1286       718       851      1561      2071       850       849      1668
 -1      1586    6    0    1
 -2      1286       711       698      1258      1561       851      2071      1394      1560      1612
 -1      1587    6    0    1
 -2       512      1290       539       524      2072      2065       658       657      1962       640
 -1      1588    6    0    1
 -2       539      1290       512      1259      2065      2072       658      2064      1523      1593
 -1      1589    6    0    1
 -2       512       534      1290       524       655      1522      2072       657       656      1962
 -1      1590    6    0    1
 -2      1290       534       512      1259      1522       655      2072      1523      1519      1593
 -1      1591    6    0    1
 -2       518       347      1290       331      2073      1521      1963      2074       391      1707
 -1      1592    6    0    1
 -2       347       518      1290       534      2073      1963      1521      1520       595      1522
 -1      1593    6    0    1
 -2        55       347       518       331       385      2073       594       389       391      2074
 -1      1594    6    0    1
 -2       347        55       518       534       385       594      2073      1520       588       595
 -1      1595    6    0    1
 -2      1264       710      1260       722      1772      1701      1443      1773       829      1807
 -1      1596    6    0    1
 -2       710      1264      1260      1278      1772      1443      1701      1711      1379      1712
 -1      1597    6    0    1
 -2       511       539      1290       524       639      2065      1804       636       640      1962
 -1      1598    6    0    1
 -2       539       511      1290      1266       639      1804      2065      1580      1700      1606
 -1      1599    6    0    1
 -2      1285      1090       725      1095      2075      1774      2045      1765      1180      2041
 -1      1600    6    0    1
 -2       725      1090      1285      1260      1774      2075      2045      1775      1728      2076
 -1      1601    6    0    1
 -2      1285      1069      1090      1095      1757      1233      2075      1765      1226      1180
 -1      1602    6    0    1
 -2      1090      1069      1285      1260      1233      1757      2075      1728      1810      2076
 -1      1603    6    0    1
 -2       168       159      1278       148       316      1769      1459       323       241      1714
 -1      1604    6    0    1
 -2      1278       159       168      1281      1769       316      1459      1713      1938      1937
 -1      1605    6    0    1
 -2       518      1290       345       331      1963      1534      2077      2074      1707       390
 -1      1606    6    0    1
 -2       345      1290       518       528      1534      1963      2077      1531      1536       593
 -1      1607    6    0    1
 -2        55       518       345       331       594      2077       387       389      2074       390
 -1      1608    6    0    1
 -2       345       518        55       528      2077       594       387      1531       593       592
 -1      1609    6    0    1
 -2       699       725      1260       720       856      1775      1702       863       810      1727
 -1      1610    6    0    1
 -2       889      1288       346       898      1777      1384      2078       963      1872      1884
 -1      1611    6    0    1
 -2       346      1288       889       332      1384      1777      2078       443      1691      1778
 -1      1612    6    0    1
 -2        88       889       346       898       964      2078       442       962       963      1884
 -1      1613    6    0    1
 -2       346       889        88       332      2078       964       442       443      1778       444
 -1      1614    6    0    1
 -2       152       522      1078       548      1879      1892      1894      1741       582      1802
 -1      1615    6    0    1
 -2      1078       522       152      1272      1892      1879      1894      1918      1921      1922
 -1      1616    6    0    1
 -2       337      1076       520       550      1893      1897      1880      1747      1826       601
 -1      1617    6    0    1
 -2      1076       337       520      1273      1893      1880      1897      1925      1924      1930
 -1      1618    6    0    1
 -2       336       890       706       920      1898      1896      1886      1825       971      1828
 -1      1619    6    0    1
 -2       890       336       706      1271      1898      1886      1896      1910      1914      1909
 -1      1620    6    0    1
 -2      1275      1262      1291      1259      1550      1565      1845      1607      1547      1671
 -1      1621    6    0    1
 -2      1262      1275      1291      1288      1550      1845      1565      1564      1386      1566
 -1      1622    6    0    1
 -2       164       154      1278       148       285      1458      1539       243       322      1714
 -1      1623    6    0    1
 -2      1278       154       164      1292      1458       285      1539      1527      1525      1540
 -1      1624    6    0    1
 -2       339      1257      1261      1270      2055      1489      1758      1760      1347      1410
 -1      1625    6    0    1
 -2      1257       339      1261      1275      2055      1758      1489      1383      1787      1603
 -1      1626    6    0    1
 -2      1269       358       328       338      2079       478      1556      1722       436       476
 -1      1627    6    0    1
 -2       358      1269       328      1291      2079      1556       478      1970      1672      1669
 -1      1628    6    0    1
 -2       155      1265       166       141      2080      1833       271       272      1694       273
 -1      1629    6    0    1
 -2       166      1265       155      1274      1833      2080       271      1745      1426      1927
 -1      1630    6    0    1
 -2       155      1277      1265       141      1900      1549      2080       272      1695      1694
 -1      1631    6    0    1
 -2      1265      1277       155      1274      1549      1900      2080      1426      2061      1927
 -1      1632    6    0    1
 -2      1256      1263      1094      1079      1625      1840      2081      1646      1647      1195
 -1      1633    6    0    1
 -2      1094      1263      1256      1276      1840      1625      2081      1721      1492      1409
 -1      1634    6    0    1
 -2      1067      1256      1094      1079      1470      2081      1213      1212      1646      1195
 -1      1635    6    0    1
 -2      1094      1256      1067      1276      2081      1470      1213      1721      1409      1471
 -1      1636    6    0    1
 -2      1081      1094      1263      1066      1203      1840      2082      1202      1194      1716
 -1      1637    6    0    1
 -2      1094      1081      1263      1276      1203      2082      1840      1721      1642      1492
 -1      1638    6    0    1
 -2      1081      1263      1287      1066      2082      1462      1644      1202      1716      1981
 -1      1639    6    0    1
 -2      1263      1081      1287      1276      2082      1644      1462      1492      1642      1643
 -1      1640    6    0    1
 -2      1291       341      1284       351      1791      1952      2083      1670       461      1972
 -1      1641    6    0    1
 -2       341      1291      1284      1275      1791      2083      1952      1951      1845      1907
 -1      1642    6    0    1
 -2      1291      1284      1259       351      2083      1495      1671      1670      1972      1614
 -1      1643    6    0    1
 -2      1284      1291      1259      1275      2083      1671      1495      1907      1845      1607
 -1      1644    6    0    1
 -2       703       349      1270       719      2084      1621      1871       780      1620      1400
 -1      1645    6    0    1
 -2       349       703      1270       333      2084      1871      1621       428      2085      1788
 -1      1646    6    0    1
 -2        77       349       703       719       421      2084       779       773      1620       780
 -1      1647    6    0    1
 -2       349        77       703       333       421       779      2084       428       427      2085
 -1      1648    6    0    1
 -2       886       163      1279       147      2086      1352      1865      1864       260      1766
 -1      1649    6    0    1
 -2       163       886      1279       901      2086      1865      1352      1653       946      1655
 -1      1650    6    0    1
 -2        44       163       886       147       253      2086       945       259       260      1864
 -1      1651    6    0    1
 -2       163        44       886       901       253       945      2086      1653       939       946
 -1      1652    6    0    1
 -2      1260       707      1285       725      2087      2037      2076      1775       806      2045
 -1      1653    6    0    1
 -2       707      1260      1285      1281      2087      2076      2037      2024      1705      1636
 -1      1654    6    0    1
 -2       699       707      1260       725       855      2087      1702       856       806      1775
 -1      1655    6    0    1
 -2       707       699      1260      1281       855      1702      2087      2024      1704      1705
 -1      1656    6    0    1
 -2       887      1280       533       517      1883      1584      2088      1895      1771       613
 -1      1657    6    0    1
 -2       533      1280       887       902      1584      1883      2088      1582      1336       983
 -1      1658    6    0    1
 -2        99       887       533       517       982      2088       606       612      1895       613
 -1      1659    6    0    1
 -2       533       887        99       902      2088       982       606      1582       983       976
 -1      1660    6    0    1
 -2       703      1270       344       713      1871      1628      2089       778      1639      1640
 -1      1661    6    0    1
 -2       344      1270       703       333      1628      1871      2089       426      1788      2085
 -1      1662    6    0    1
 -2        77       703       344       713       779      2089       425       777       778      1640
 -1      1663    6    0    1
 -2       344       703        77       333      2089       779       425       426      2085       427
 -1      1664    6    0    1
 -2       358      1269       892       338      2079      1832      1994       436      1722      1511
 -1      1665    6    0    1
 -2       337       546      1273       360      1976      1959      1924       395      1977      1958
 -1      1666    6    0    1
 -2       546       337      1273       520      1976      1924      1959       600      1880      1930
 -1      1667    6    0    1
 -2       161      1279       169       147      2090      1761       289       258      1766       321
 -1      1668    6    0    1
 -2       169      1279       161      1292      1761      2090       289      1763      1764      1968
 -1      1669    6    0    1
 -2       161       897      1279       147      1877      1730      2090       258      1863      1766
 -1      1670    6    0    1
 -2        54       534       357       541       589      1680       380       583       590      1681
 -1      1671    6    0    1
 -2       534        54       357       347       589       380      1680      1520       384       386
 -1      1672    6    0    1
 -2       904       121      1286       888       993      1929      1403      1000       999      1960
 -1      1673    6    0    1
 -2       884      1291       910       903      1665      2091      1044      1047      1902       960
 -1      1674    6    0    1
 -2       521        53       357       541       586       379      2092       585       584      1681
 -1      1675    6    0    1
 -2       357        53       521       338       379       586      2092       382       381      1697
 -1      1676    6    0    1
 -2      1269       521       357       541      1831      2092      1683      1682       585      1681
 -1      1677    6    0    1
 -2       357       521      1269       338      2092      1831      1683       382      1697      1722
 -1      1678    6    0    1
 -2       111      1099       529      1086      1170      1815       627      1164      1171      1477
 -1      1679    6    0    1
 -2       529      1099       111       547      1815      1170       627       633      1816       631
 -1      1680    6    0    1
 -2        23       158      1100      1085       220      1617      1132      1128      1688      1134
 -1      1681    6    0    1
 -2      1100       158        23       176      1617       220      1132      1616       227       226
 -1      1682    6    0    1
 -2       903       358      1291       910      2093      1970      1902       960      2042      2091
 -1      1683    6    0    1
 -2       358       903      1291       348      2093      1902      1970       440      1903      1904
 -1      1684    6    0    1
 -2        87       358       903       910       434      2093       959       953      2042       960
 -1      1685    6    0    1
 -2       358        87       903       348       434       959      2093       440       439      1903
 -1      1686    6    0    1
 -2        89       898       359       915       961      1835       447       967       968      1836
 -1      1687    6    0    1
 -2       898        89       359       346       961       447      1835      1884       441       448
 -1      1688    6    0    1
 -2      1273       345       546       528      1533      2040      1959      1532      1531       598
 -1      1689    6    0    1
 -2       546       345      1273       360      2040      1533      1959      1977       394      1958
 -1      1690    6    0    1
 -2        34       159       730       177       239      1986       763       245       246      1987
 -1      1691    6    0    1
 -2       159        34       730       715       239       763      1986      1945       757       764
 -1      1692    6    0    1
 -2       100       899       544       914       979      1985       615       985       986      1982
 -1      1693    6    0    1
 -2       544       899       100       531      1985       979       615       616      1873       609
 -1      1694    6    0    1
 -2       722       704      1252       712       880      1463      2094       834       879      1661
 -1      1695    6    0    1
 -2      1252       704       722      1260      1463       880      2094      1442      1466      1807
 -1      1696    6    0    1
 -2      1264       722      1252       712      1773      2094      1432      1663       834      1661
 -1      1697    6    0    1
 -2      1252       722      1264      1260      2094      1773      1432      1442      1807      1443
 -1      1698    6    0    1
 -2      1092      1252      1074      1082      2095      1464      1250      1205      1673      1249
 -1      1699    6    0    1
 -2      1074      1252      1092      1260      1464      2095      1250      1467      1442      1809
 -1      1700    6    0    1
 -2      1092      1263      1252      1082      1717      1431      2095      1205      1676      1673
 -1      1701    6    0    1
 -2      1252      1263      1092      1260      1431      1717      2095      1442      1441      1809
 -1      1702    6    0    1
 -2      1253       143       166       156      1297       297      2096      1337       296       276
 -1      1703    6    0    1
 -2       143      1253       166      1274      1297      2096       297      1356      1330      1745
 -1      1704    6    0    1
 -2      1253       166      1265       156      2096      1833      1425      1337       276      1557
 -1      1705    6    0    1
 -2       166      1253      1265      1274      2096      1425      1833      1745      1330      1426
 -1      1706    6    0    1
 -2       161      1267      1279       897      1878      1731      2090      1877      1729      1730
 -1      1707    6    0    1
 -2      1279      1267       161      1292      1731      1878      2090      1764      1541      1968
 -1      1708    6    0    1
 -2      1281       701       159       715      2097      1768      1938      1911       759      1945
 -1      1709    6    0    1
 -2       159       701      1281      1278      1768      2097      1938      1769      1755      1713
 -1      1710    6    0    1
 -2      1281       710       701       715      1703       873      2097      1911       858       759
 -1      1711    6    0    1
 -2       701       710      1281      1278       873      1703      2097      1755      1711      1713
 -1      1712    6    0    1
 -2       121      1286       718       904      1929      1668       791       993      1403      1667
 -1      1713    6    0    1
 -2       718      1286       121       702      1668      1929       791       798      1887       797
 -1      1714    6    0    1
 -2       142      1293       171      1267      2098      1942       283      1881      1943      1941
 -1      1715    6    0    1
 -2       171      1293       142       151      1942      2098       283       233      2025       282
 -1      1716    6    0    1
 -2       142       174      1293      1267       284      1950      2098      1881      1822      1943
 -1      1717    6    0    1
 -2      1293       174       142       151      1950       284      2098      2025       264       282
 -1      1718    6    0    1
 -2      1277       155       144       167      1900       305      2099      1842       274       306
 -1      1719    6    0    1
 -2      1277       144       165       167      2099       308      1313      1842       306       307
 -1      1720    6    0    1
 -2       144      1277       165      1272      2099      1313       308      1956      1302      1312
 -1      1721    6    0    1
 -2      1283      1261       330       342      1597      2056      2100      1790      1789       499
 -1      1722    6    0    1
 -2      1261      1283       330      1282      1597      2100      2056      1413      1599      1631
 -1      1723    6    0    1
 -2      1283       330       343       342      2100       497      1890      1790       499       498
 -1      1724    6    0    1
 -2       330      1283       343      1282      2100      1890       497      1631      1599      1961
 -1      1725    6    0    1
 -2      1265      1277      1281       168      1549      1429      2101      1456      1696      1937
 -1      1726    6    0    1
 -2      1281      1277      1265      1254      1429      1549      2101      1770      1371      1377
 -1      1727    6    0    1
 -2      1278      1265      1281       168      1381      2101      1713      1459      1456      1937
 -1      1728    6    0    1
 -2      1281      1265      1278      1254      2101      1381      1713      1770      1377      1380
 -1      1729    6    0    1
 -2      1281      1069      1285      1100      2102      1757      1636      1619      1227      1637
 -1      1730    6    0    1
 -2      1285      1069      1281      1260      1757      2102      1636      2076      1810      1705
 -1      1731    6    0    1
 -2      1281      1085      1069      1100      1689      1228      2102      1619      1134      1227
 -1      1732    6    0    1
 -2      1069      1085      1281      1260      1228      1689      2102      1810      2048      1705
 -1      1733    6    0    1
 -2      1084      1282       732      1102      1678      2063      2103      1188      1850      2043
 -1      1734    6    0    1
 -2       732      1282      1084       714      2063      1678      2103       818      1651      1572
 -1      1735    6    0    1
 -2       133      1084       732      1102      1182      2103       817      1186      1188      2043
 -1      1736    6    0    1
 -2       732      1084       133       714      2103      1182       817       818      1572       811
 -1      1737    6    0    1
 -2      1270       700       723      1252      2104       870      1679      1411      1650      1660
 -1      1738    6    0    1
 -2       723       700      1270       713       870      2104      1679       871       872      1639
 -1      1739    6    0    1
 -2      1270      1282       700      1252      1415      1652      2104      1411      1414      1650
 -1      1740    6    0    1
 -2       700      1282      1270       713      1652      1415      2104       872      1641      1639
 -1      1741    6    0    1
 -2      1291       892       358      1269      2105      1994      1970      1672      1832      2079
 -1      1742    6    0    1
 -2       358       892      1291       910      1994      2105      1970      2042       955      2091
 -1      1743    6    0    1
 -2      1291       884       892      1269      1665      1043      2105      1672      1686      1832
 -1      1744    6    0    1
 -2       892       884      1291       910      1043      1665      2105       955      1044      2091
 -1      1745    6    0    1
 -2       896      1268       909      1253      2106      1307      1024      1658      1295      1308
 -1      1746    6    0    1
 -2       909      1268       896       882      1307      2106      1024      1025      1509      1022
 -1      1747    6    0    1
 -2       896      1279      1268      1253      1659      1300      2106      1658      1298      1295
 -1      1748    6    0    1
 -2      1277      1274      1251      1255      2061      1398      1372      1301      1364      1399
 -1      1749    6    0    1
 -2      1251      1274      1277      1265      1398      2061      1372      1387      1426      1549
 -1      1750    6    0    1
 -2      1282       732       705       700      2063       819      2107      1652       866       864
 -1      1751    6    0    1
 -2       732      1282       705      1289      2063      2107       819      2044      1455      2004
 -1      1752    6    0    1
 -2      1282       705       731       700      2107       784      1450      1652       864       865
 -1      1753    6    0    1
 -2       705      1282       731      1289      2107      1450       784      2004      1455      1453
 -1      1754    6    0    1
 -2      1263      1260      1080      1092      1441      1808      2108      1717      1809      1200
 -1      1755    6    0    1
 -2      1080      1260      1263      1287      1808      1441      2108      1984      1723      1462
 -1      1756    6    0    1
 -2      1066      1263      1080      1092      1716      2108      1196      1199      1717      1200
 -1      1757    6    0    1
 -2      1080      1263      1066      1287      2108      1716      1196      1984      1462      1981
 -1      1758    6    0    1
 -2       164       727      1267       171      2109      1940      1537       238      1939      1941
 -1      1759    6    0    1
 -2      1267       727       164       717      1940      2109      1537      1600       756      1601
 -1      1760    6    0    1
 -2       164        32       727       171       237       749      2109       238       231      1939
 -1      1761    6    0    1
 -2       727        32       164       717       749       237      2109       756       755      1601
 -1      1762    6    0    1
 -2      1274       144      1277       155      2110      2099      2061      1927       305      1900
 -1      1763    6    0    1
 -2      1277       144      1274      1272      2099      2110      2061      1302      1956      1439
 -1      1764    6    0    1
 -2      1274       160       144       155      1440       304      2110      1927       303       305
 -1      1765    6    0    1
 -2       144       160      1274      1272       304      1440      2110      1956      1436      1439
 -1      1766    6    0    1
 -2       532      1268       172       162      1587      1931      2111      1589      1588       201
 -1      1767    6    0    1
 -2       172      1268       532       542      1931      1587      2111      1933      1932       571
 -1      1768    6    0    1
 -2        10       532       172       162       569      2111       194       200      1589       201
 -1      1769    6    0    1
 -2       172       532        10       542      2111       569       194      1933       571       565
 -1      1770    6    0    1
 -2       143      1294       172       153      2112      1934       292       291      2023       196
 -1      1771    6    0    1
 -2       172      1294       143      1268      1934      2112       292      1931      1936      1296
 -1      1772    6    0    1
 -2       143       173      1294       153       293      1954      2112       291       251      2023
 -1      1773    6    0    1
 -2      1294       173       143      1268      1954       293      2112      1936      1814      1296
 -1      1774    6    0    1
 -2       165      1097      1272      1087      2113      1919      1312      1339      1126      1340
 -1      1775    6    0    1
 -2      1272      1097       165       170      1919      2113      1312      1917      1915       219
 -1      1776    6    0    1
 -2       165        21      1097      1087       218      1120      2113      1339      1124      1126
 -1      1777    6    0    1
 -2      1097        21       165       170      1120       218      2113      1915       213       219
 -1      1778    6    0    1
 -2       522      1272       175       152      1921      1784      2114      1879      1922       210
 -1      1779    6    0    1
 -2      1272       522       175       545      1921      2114      1784      1783       580      1782
 -1      1780    6    0    1
 -2       522       175        13       152      2114       207       581      1879       210       211
 -1      1781    6    0    1
 -2       175       522        13       545      2114       581       207      1782       580       578
 -1      1782    6    0    1
 -2       901      1268       896      1279      1654      2106      1021      1655      1300      1659
 -1      1783    6    0    1
 -2       896      1268       901       882      2106      1654      1021      1022      1509      1023
 -3
    1PSTEP                         1           1           1          
  100CL  101 1.000000000        2114                     0    1           1
 -4  DISP        4    1
 -5  D1          1    2    1    0
 -5  D2          1    2    2    0
 -5  D3          1    2    3    0
 -5  ALL         1    2    0    0    1ALL
 -1         1 0.00000E+00 0.00000E+00 0.00000E+00
 -1         2 0.00000E+00 0.00000E+00 0.00000E+00
 -1         3 0.00000E+00 0.00000E+00 0.00000E+00
 -1         4 0.00000E+00 0.00000E+00 0.00000E+00
 -1         5 1.00000E+00 1.00000E+00 0.00000E+00
 -1         6 1.00000E+00 1.00000E+00 0.00000E+00
 -1         7 1.00000E+00 1.00000E+00 0.00000E+00
 -1         8 1.00000E+00 1.00000E+00 0.00000E+00
 -1         9 0.00000E+00 0.00000E+00 0.00000E+00
 -1        10 0.00000E+00 0.00000E+00 0.00000E+00
 -1        11 0.00000E+00 0.00000E+00 0.00000E+00
 -1        12 0.00000E+00 0.00000E+00 0.00000E+00
 -1        13 0.00000E+00 0.00000E+00 0.00000E+00
 -1        14 0.00000E+00 0.00000E+00 0.00000E+00
 -1        15 0.00000E+00 0.00000E+00 0.00000E+00
 -1        16 0.00000E+00 0.00000E+00 0.00000E+00
 -1        17 0.00000E+00 0.00000E+00 0.00000E+00
 -1        18 0.00000E+00 0.00000E+00 0.00000E+00
 -1        19 0.00000E+00 0.00000E+00 0.00000E+00
 -1        20 0.00000E+00 0.00000E+00 0.00000E+00
 -1        21 0.00000E+00 0.00000E+00 0.00000E+00
 -1        22 0.00000E+00 0.00000E+00 0.00000E+00
 -1        23 0.00000E+00 0.00000E+00 0.00000E+00
 -1        24 0.00000E+00 0.00000E+00 0.00000E+00
 -1        25 0.00000E+00 0.00000E+00 0.00000E+00
 -1        26 0.00000E+00 0.00000E+00 0.00000E+00
 -1        27 0.00000E+00 0.00000E+00 0.00000E+00
 -1        28 0.00000E+00 0.00000E+00 0.00000E+00
 -1        29 0.00000E+00 0.00000E+00 0.00000E+00
 -1        30 0.00000E+00 0.00000E+00 0.00000E+00
 -1        31 0.00000E+00 0.00000E+00 0.00000E+00
 -1        32 0.00000E+00 0.00000E+00 0.00000E+00
 -1        33 0.00000E+00 0.00000E+00 0.00000E+00
 -1        34 0.00000E+00 0.00000E+00 0.00000E+00
 -1        35 0.00000E+00 0.00000E+00 0.00000E+00
 -1        36 0.00000E+00 0.00000E+00 0.00000E+00
 -1        37 0.00000E+00 0.00000E+00 0.00000E+00
 -1        38 0.00000E+00 0.00000E+00 0.00000E+00
 -1        39 0.00000E+00 0.00000E+00 0.00000E+00
 -1        40 0.00000E+00 0.00000E+00 0.00000E+00
 -1        41 0.00000E+00 0.00000E+00 0.00000E+00
 -1        42 0.00000E+00 0.00000E+00 0.00000E+00
 -1        43 0.00000E+00 0.00000E+00 0.00000E+00
 -1        44 0.00000E+00 0.00000E+00 0.00000E+00
 -1        45 0.00000E+00 0.00000E+00 0.00000E+00
 -1        46 0.00000E+00 0.00000E+00 0.00000E+00
 -1        47 0.00000E+00 0.00000E+00 0.00000E+00
 -1        48 0.00000E+00 0.00000E+00 0.00000E+00
 -1        49 0.00000E+00 0.00000E+00 0.00000E+00
 -1        50 0.00000E+00 0.00000E+00 0.00000E+00
 -1        51 0.00000E+00 0.00000E+00 0.00000E+00
 -1        52 0.00000E+00 0.00000E+00 0.00000E+00
 -1        53 1.00000E+00 1.00000E+00 0.00000E+00
 -1        54 1.00000E+00 1.00000E+00 0.00000E+00
 -1        55 1.00000E+00 1.00000E+00 0.00000E+00
 -1        56 1.00000E+00 1.00000E+00 0.00000E+00
 -1        57 1.00000E+00 1.00000E+00 0.00000E+00
 -1        58 1.00000E+00 1.00000E+00 0.00000E+00
 -1        59 1.00000E+00 1.00000E+00 0.00000E+00
 -1        60 1.00000E+00 1.00000E+00 0.00000E+00
 -1        61 1.00000E+00 1.00000E+00 0.00000E+00
 -1        62 1.00000E+00 1.00000E+00 0.00000E+00
 -1        63 1.00000E+00 1.00000E+00 0.00000E+00
 -1        64 1.00000E+00 1.00000E+00 0.00000E+00
 -1        65 1.00000E+00 1.00000E+00 0.00000E+00
 -1        66 1.00000E+00 1.00000E+00 0.00000E+00
 -1        67 1.00000E+00 1.00000E+00 0.00000E+00
 -1        68 1.00000E+00 1.00000E+00 0.00000E+00
 -1        69 1.00000E+00 1.00000E+00 0.00000E+00
 -1        70 1.00000E+00 1.00000E+00 0.00000E+00
 -1        71 1.00000E+00 1.00000E+00 0.00000E+00
 -1        72 1.00000E+00 1.00000E+00 0.00000E+00
 -1        73 1.00000E+00 1.00000E+00 0.00000E+00
 -1        74 1.00000E+00 1.00000E+00 0.00000E+00
 -1        75 1.00000E+00 1.00000E+00 0.00000E+00
 -1        76 1.00000E+00 1.00000E+00 0.00000E+00
 -1        77 1.00000E+00 1.00000E+00 0.00000E+00
 -1        78 1.00000E+00 1.00000E+00 0.00000E+00
 -1        79 1.00000E+00 1.00000E+00 0.00000E+00
 -1        80 1.00000E+00 1.00000E+00 0.00000E+00
 -1        81 1.00000E+00 1.00000E+00 0.00000E+00
 -1        82 1.00000E+00 1.00000E+00 0.00000E+00
 -1        83 1.00000E+00 1.00000E+00 0.00000E+00
 -1        84 1.00000E+00 1.00000E+00 0.00000E+00
 -1        85 1.00000E+00 1.00000E+00 0.00000E+00
 -1        86 1.00000E+00 1.00000E+00 0.00000E+00
 -1        87 1.00000E+00 1.00000E+00 0.00000E+00
 -1        88 1.00000E+00 1.00000E+00 0.00000E+00
 -1        89 1.00000E+00 1.00000E+00 0.00000E+00
 -1        90 1.00000E+00 1.00000E+00 0.00000E+00
 -1        91 1.00000E+00 1.00000E+00 0.00000E+00
 -1        92 1.00000E+00 1.00000E+00 0.00000E+00
 -1        93 1.00000E+00 1.00000E+00 0.00000E+00
 -1        94 1.00000E+00 1.00000E+00 0.00000E+00
 -1        95 1.00000E+00 1.00000E+00 0.00000E+00
 -1        96 1.00000E+00 1.00000E+00 0.00000E+00
 -1        97 3.58102E-01 2.54432E-01 1.56354E-01
 -1        98 5.61433E-01 4.58043E-01 1.72631E-01
 -1        99 7.23087E-01 6.52145E-01 1.51513E-01
 -1       100 8.46505E-01 8.28408E-01 1.13668E-01
 -1       101 9.29700E-01 9.65870E-01 6.25556E-02
 -1       102 2.25568E-01 1.49701E-01 1.20250E-01
 -1       103 4.66458E-01 3.57683E-01 1.71620E-01
 -1       104 6.46856E-01 5.56364E-01 1.64937E-01
 -1       105 7.89679E-01 7.43627E-01 1.34212E-01
 -1       106 8.92735E-01 9.04377E-01 8.98114E-02
 -1       107 9.59505E-01 1.00543E+00 3.38528E-02
 -1       108 3.58045E-01 2.53369E-01-1.56902E-01
 -1       109 5.61117E-01 4.57446E-01-1.72756E-01
 -1       110 7.23208E-01 6.51523E-01-1.52045E-01
 -1       111 8.46265E-01 8.28374E-01-1.13658E-01
 -1       112 9.29943E-01 9.65952E-01-6.22171E-02
 -1       113 2.25385E-01 1.48679E-01-1.19606E-01
 -1       114 4.66071E-01 3.57020E-01-1.71886E-01
 -1       115 6.46772E-01 5.55667E-01-1.65382E-01
 -1       116 7.89435E-01 7.43230E-01-1.34491E-01
 -1       117 8.92722E-01 9.04313E-01-8.96039E-02
 -1       118 9.59769E-01 1.00557E+00-3.37331E-02
 -1       119 7.11856E-02 3.49935E-02 6.34686E-02
 -1       120 1.53671E-01 1.71767E-01 1.13957E-01
 -1       121 2.77480E-01 3.48310E-01 1.51712E-01
 -1       122 4.38745E-01 5.42200E-01 1.72456E-01
 -1       123 6.42594E-01 7.46970E-01 1.56435E-01
 -1       124 4.03334E-02-5.14933E-03 3.42160E-02
 -1       125 1.07557E-01 9.61234E-02 9.01629E-02
 -1       126 2.10620E-01 2.56911E-01 1.34551E-01
 -1       127 3.53449E-01 4.44021E-01 1.64972E-01
 -1       128 5.33853E-01 6.43168E-01 1.71815E-01
 -1       129 7.75254E-01 8.51579E-01 1.19757E-01
 -1       130 7.10559E-02 3.48122E-02-6.30759E-02
 -1       131 1.53823E-01 1.71635E-01-1.13623E-01
 -1       132 2.76855E-01 3.48107E-01-1.51879E-01
 -1       133 4.38432E-01 5.41946E-01-1.72639E-01
 -1       134 6.41938E-01 7.45420E-01-1.56173E-01
 -1       135 4.02733E-02-5.27784E-03-3.41538E-02
 -1       136 1.07740E-01 9.58684E-02-8.99028E-02
 -1       137 2.10548E-01 2.56631E-01-1.34436E-01
 -1       138 3.52955E-01 4.43735E-01-1.64950E-01
 -1       139 5.33539E-01 6.42237E-01-1.71508E-01
 -1       140 7.74676E-01 8.50306E-01-1.20640E-01
 -1       141 0.00000E+00 0.00000E+00 0.00000E+00
 -1       142 0.00000E+00 0.00000E+00 0.00000E+00
 -1       143 0.00000E+00 0.00000E+00 0.00000E+00
 -1       144 0.00000E+00 0.00000E+00 0.00000E+00
 -1       145 0.00000E+00 0.00000E+00 0.00000E+00
 -1       146 0.00000E+00 0.00000E+00 0.00000E+00
 -1       147 0.00000E+00 0.00000E+00 0.00000E+00
 -1       148 0.00000E+00 0.00000E+00 0.00000E+00
 -1       149 0.00000E+00 0.00000E+00 0.00000E+00
 -1       150 0.00000E+00 0.00000E+00 0.00000E+00
 -1       151 0.00000E+00 0.00000E+00 0.00000E+00
 -1       152 0.00000E+00 0.00000E+00 0.00000E+00
 -1       153 0.00000E+00 0.00000E+00 0.00000E+00
 -1       154 0.00000E+00 0.00000E+00 0.00000E+00
 -1       155 0.00000E+00 0.00000E+00 0.00000E+00
 -1       156 0.00000E+00 0.00000E+00 0.00000E+00
 -1       157 0.00000E+00 0.00000E+00 0.00000E+00
 -1       158 0.00000E+00 0.00000E+00 0.00000E+00
 -1       159 0.00000E+00 0.00000E+00 0.00000E+00
 -1       160 0.00000E+00 0.00000E+00 0.00000E+00
 -1       161 0.00000E+00 0.00000E+00 0.00000E+00
 -1       162 0.00000E+00 0.00000E+00 0.00000E+00
 -1       163 0.00000E+00 0.00000E+00 0.00000E+00
 -1       164 0.00000E+00 0.00000E+00 0.00000E+00
 -1       165 0.00000E+00 0.00000E+00 0.00000E+00
 -1       166 0.00000E+00 0.00000E+00 0.00000E+00
 -1       167 0.00000E+00 0.00000E+00 0.00000E+00
 -1       168 0.00000E+00 0.00000E+00 0.00000E+00
 -1       169 0.00000E+00 0.00000E+00 0.00000E+00
 -1       170 0.00000E+00 0.00000E+00 0.00000E+00
 -1       171 0.00000E+00 0.00000E+00 0.00000E+00
 -1       172 0.00000E+00 0.00000E+00 0.00000E+00
 -1       173 0.00000E+00 0.00000E+00 0.00000E+00
 -1       174 0.00000E+00 0.00000E+00 0.00000E+00
 -1       175 0.00000E+00 0.00000E+00 0.00000E+00
 -1       176 0.00000E+00 0.00000E+00 0.00000E+00
 -1       177 0.00000E+00 0.00000E+00 0.00000E+00
 -1       178 0.00000E+00 0.00000E+00 0.00000E+00
 -1       179 0.00000E+00 0.00000E+00 0.00000E+00
 -1       180 0.00000E+00 0.00000E+00 0.00000E+00
 -1       181 0.00000E+00 0.00000E+00 0.00000E+00
 -1       182 0.00000E+00 0.00000E+00 0.00000E+00
 -1       183 0.00000E+00 0.00000E+00 0.00000E+00
 -1       184 0.00000E+00 0.00000E+00 0.00000E+00
 -1       185 0.00000E+00 0.00000E+00 0.00000E+00
 -1       186 0.00000E+00 0.00000E+00 0.00000E+00
 -1       187 0.00000E+00 0.00000E+00 0.00000E+00
 -1       188 0.00000E+00 0.00000E+00 0.00000E+00
 -1       189 0.00000E+00 0.00000E+00 0.00000E+00
 -1       190 0.00000E+00 0.00000E+00 0.00000E+00
 -1       191 0.00000E+00 0.00000E+00 0.00000E+00
 -1       192 0.00000E+00 0.00000E+00 0.00000E+00
 -1       193 0.00000E+00 0.00000E+00 0.00000E+00
 -1       194 0.00000E+00 0.00000E+00 0.00000E+00
 -1       195 0.00000E+00 0.00000E+00 0.00000E+00
 -1       196 0.00000E+00 0.00000E+00 0.00000E+00
 -1       197 0.00000E+00 0.00000E+00 0.00000E+00
 -1       198 0.00000E+00 0.00000E+00 0.00000E+00
 -1       199 0.00000E+00 0.00000E+00 0.00000E+00
 -1       200 0.00000E+00 0.00000E+00 0.00000E+00
 -1       201 0.00000E+00 0.00000E+00 0.00000E+00
 -1       202 0.00000E+00 0.00000E+00 0.00000E+00
 -1       203 0.00000E+00 0.00000E+00 0.00000E+00
 -1       204 0.00000E+00 0.00000E+00 0.00000E+00
 -1       205 0.00000E+00 0.00000E+00 0.00000E+00
 -1       206 0.00000E+00 0.00000E+00 0.00000E+00
 -1       207 0.00000E+00 0.00000E+00 0.00000E+00
 -1       208 0.00000E+00 0.00000E+00 0.00000E+00
 -1       209 0.00000E+00 0.00000E+00 0.00000E+00
 -1       210 0.00000E+00 0.00000E+00 0.00000E+00
 -1       211 0.00000E+00 0.00000E+00 0.00000E+00
 -1       212 0.00000E+00 0.00000E+00 0.00000E+00
 -1       213 0.00000E+00 0.00000E+00 0.00000E+00
 -1       214 0.00000E+00 0.00000E+00 0.00000E+00
 -1       215 0.00000E+00 0.00000E+00 0.00000E+00
 -1       216 0.00000E+00 0.00000E+00 0.00000E+00
 -1       217 0.00000E+00 0.00000E+00 0.00000E+00
 -1       218 0.00000E+00 0.00000E+00 0.00000E+00
 -1       219 0.00000E+00 0.00000E+00 0.00000E+00
 -1       220 0.00000E+00 0.00000E+00 0.00000E+00
 -1       221 0.00000E+00 0.00000E+00 0.00000E+00
 -1       222 0.00000E+00 0.00000E+00 0.00000E+00
 -1       223 0.00000E+00 0.00000E+00 0.00000E+00
 -1       224 0.00000E+00 0.00000E+00 0.00000E+00
 -1       225 0.00000E+00 0.00000E+00 0.00000E+00
 -1       226 0.00000E+00 0.00000E+00 0.00000E+00
 -1       227 0.00000E+00 0.00000E+00 0.00000E+00
 -1       228 0.00000E+00 0.00000E+00 0.00000E+00
 -1       229 0.00000E+00 0.00000E+00 0.00000E+00
 -1       230 0.00000E+00 0.00000E+00 0.00000E+00
 -1       231 0.00000E+00 0.00000E+00 0.00000E+00
 -1       232 0.00000E+00 0.00000E+00 0.00000E+00
 -1       233 0.00000E+00 0.00000E+00 0.00000E+00
 -1       234 0.00000E+00 0.00000E+00 0.00000E+00
 -1       235 0.00000E+00 0.00000E+00 0.00000E+00
 -1       236 0.00000E+00 0.00000E+00 0.00000E+00
 -1       237 0.00000E+00 0.00000E+00 0.00000E+00
 -1       238 0.00000E+00 0.00000E+00 0.00000E+00
 -1       239 0.00000E+00 0.00000E+00 0.00000E+00
 -1       240 0.00000E+00 0.00000E+00 0.00000E+00
 -1       241 0.00000E+00 0.00000E+00 0.00000E+00
 -1       242 0.00000E+00 0.00000E+00 0.00000E+00
 -1       243 0.00000E+00 0.00000E+00 0.00000E+00
 -1       244 0.00000E+00 0.00000E+00 0.00000E+00
 -1       245 0.00000E+00 0.00000E+00 0.00000E+00
 -1       246 0.00000E+00 0.00000E+00 0.00000E+00
 -1       247 0.00000E+00 0.00000E+00 0.00000E+00
 -1       248 0.00000E+00 0.00000E+00 0.00000E+00
 -1       249 0.00000E+00 0.00000E+00 0.00000E+00
 -1       250 0.00000E+00 0.00000E+00 0.00000E+00
 -1       251 0.00000E+00 0.00000E+00 0.00000E+00
 -1       252 0.00000E+00 0.00000E+00 0.00000E+00
 -1       253 0.00000E+00 0.00000E+00 0.00000E+00
 -1       254 0.00000E+00 0.00000E+00 0.00000E+00
 -1       255 0.00000E+00 0.00000E+00 0.00000E+00
 -1       256 0.00000E+00 0.00000E+00 0.00000E+00
 -1       257 0.00000E+00 0.00000E+00 0.00000E+00
 -1       258 0.00000E+00 0.00000E+00 0.00000E+00
 -1       259 0.00000E+00 0.00000E+00 0.00000E+00
 -1       260 0.00000E+00 0.00000E+00 0.00000E+00
 -1       261 0.00000E+00 0.00000E+00 0.00000E+00
 -1       262 0.00000E+00 0.00000E+00 0.00000E+00
 -1       263 0.00000E+00 0.00000E+00 0.00000E+00
 -1       264 0.00000E+00 0.00000E+00 0.00000E+00
 -1       265 0.00000E+00 0.00000E+00 0.00000E+00
 -1       266 0.00000E+00 0.00000E+00 0.00000E+00
 -1       267 0.00000E+00 0.00000E+00 0.00000E+00
 -1       268 0.00000E+00 0.00000E+00 0.00000E+00
 -1       269 0.00000E+00 0.00000E+00 0.00000E+00
 -1       270 0.00000E+00 0.00000E+00 0.00000E+00
 -1       271 0.00000E+00 0.00000E+00 0.00000E+00
 -1       272 0.00000E+00 0.00000E+00 0.00000E+00
 -1       273 0.00000E+00 0.00000E+00 0.00000E+00
 -1       274 0.00000E+00 0.00000E+00 0.00000E+00
 -1       275 0.00000E+00 0.00000E+00 0.00000E+00
 -1       276 0.00000E+00 0.00000E+00 0.00000E+00
 -1       277 0.00000E+00 0.00000E+00 0.00000E+00
 -1       278 0.00000E+00 0.00000E+00 0.00000E+00
 -1       279 0.00000E+00 0.00000E+00 0.00000E+00
 -1       280 0.00000E+00 0.00000E+00 0.00000E+00
 -1       281 0.00000E+00 0.00000E+00 0.00000E+00
 -1       282 0.00000E+00 0.00000E+00 0.00000E+00
 -1       283 0.00000E+00 0.00000E+00 0.00000E+00
 -1       284 0.00000E+00 0.00000E+00 0.00000E+00
 -1       285 0.00000E+00 0.00000E+00 0.00000E+00
 -1       286 0.00000E+00 0.00000E+00 0.00000E+00
 -1       287 0.00000E+00 0.00000E+00 0.00000E+00
 -1       288 0.00000E+00 0.00000E+00 0.00000E+00
 -1       289 0.00000E+00 0.00000E+00 0.00000E+00
 -1       290 0.00000E+00 0.00000E+00 0.00000E+00
 -1       291 0.00000E+00 0.00000E+00 0.00000E+00
 -1       292 0.00000E+00 0.00000E+00 0.00000E+00
 -1       293 0.00000E+00 0.00000E+00 0.00000E+00
 -1       294 0.00000E+00 0.00000E+00 0.00000E+00
 -1       295 0.00000E+00 0.00000E+00 0.00000E+00
 -1       296 0.00000E+00 0.00000E+00 0.00000E+00
 -1       297 0.00000E+00 0.00000E+00 0.00000E+00
 -1       298 0.00000E+00 0.00000E+00 0.00000E+00
 -1       299 0.00000E+00 0.00000E+00 0.00000E+00
 -1       300 0.00000E+00 0.00000E+00 0.00000E+00
 -1       301 0.00000E+00 0.00000E+00 0.00000E+00
 -1       302 0.00000E+00 0.00000E+00 0.00000E+00
 -1       303 0.00000E+00 0.00000E+00 0.00000E+00
 -1       304 0.00000E+00 0.00000E+00 0.00000E+00
 -1       305 0.00000E+00 0.00000E+00 0.00000E+00
 -1       306 0.00000E+00 0.00000E+00 0.00000E+00
 -1       307 0.00000E+00 0.00000E+00 0.00000E+00
 -1       308 0.00000E+00 0.00000E+00 0.00000E+00
 -1       309 0.00000E+00 0.00000E+00 0.00000E+00
 -1       310 0.00000E+00 0.00000E+00 0.00000E+00
 -1       311 0.00000E+00 0.00000E+00 0.00000E+00
 -1       312 0.00000E+00 0.00000E+00 0.00000E+00
 -1       313 0.00000E+00 0.00000E+00 0.00000E+00
 -1       314 0.00000E+00 0.00000E+00 0.00000E+00
 -1       315 0.00000E+00 0.00000E+00 0.00000E+00
 -1       316 0.00000E+00 0.00000E+00 0.00000E+00
 -1       317 0.00000E+00 0.00000E+00 0.00000E+00
 -1       318 0.00000E+00 0.00000E+00 0.00000E+00
 -1       319 0.00000E+00 0.00000E+00 0.00000E+00
 -1       320 0.00000E+00 0.00000E+00 0.00000E+00
 -1       321 0.00000E+00 0.00000E+00 0.00000E+00
 -1       322 0.00000E+00 0.00000E+00 0.00000E+00
 -1       323 0.00000E+00 0.00000E+00 0.00000E+00
 -1       324 0.00000E+00 0.00000E+00 0.00000E+00
 -1       325 0.00000E+00 0.00000E+00 0.00000E+00
 -1       326 1.00000E+00 1.00000E+00 0.00000E+00
 -1       327 1.00000E+00 1.00000E+00 0.00000E+00
 -1       328 1.00000E+00 1.00000E+00 0.00000E+00
 -1       329 1.00000E+00 1.00000E+00 0.00000E+00
 -1       330 1.00000E+00 1.00000E+00 0.00000E+00
 -1       331 1.00000E+00 1.00000E+00 0.00000E+00
 -1       332 1.00000E+00 1.00000E+00 0.00000E+00
 -1       333 1.00000E+00 1.00000E+00 0.00000E+00
 -1       334 1.00000E+00 1.00000E+00 0.00000E+00
 -1       335 1.00000E+00 1.00000E+00 0.00000E+00
 -1       336 1.00000E+00 1.00000E+00 0.00000E+00
 -1       337 1.00000E+00 1.00000E+00 0.00000E+00
 -1       338 1.00000E+00 1.00000E+00 0.00000E+00
 -1       339 1.00000E+00 1.00000E+00 0.00000E+00
 -1       340 1.00000E+00 1.00000E+00 0.00000E+00
 -1       341 1.00000E+00 1.00000E+00 0.00000E+00
 -1       342 1.00000E+00 1.00000E+00 0.00000E+00
 -1       343 1.00000E+00 1.00000E+00 0.00000E+00
 -1       344 1.00000E+00 1.00000E+00 0.00000E+00
 -1       345 1.00000E+00 1.00000E+00 0.00000E+00
 -1       346 1.00000E+00 1.00000E+00 0.00000E+00
 -1       347 1.00000E+00 1.00000E+00 0.00000E+00
 -1       348 1.00000E+00 1.00000E+00 0.00000E+00
 -1       349 1.00000E+00 1.00000E+00 0.00000E+00
 -1       350 1.00000E+00 1.00000E+00 0.00000E+00
 -1       351 1.00000E+00 1.00000E+00 0.00000E+00
 -1       352 1.00000E+00 1.00000E+00 0.00000E+00
 -1       353 1.00000E+00 1.00000E+00 0.00000E+00
 -1       354 1.00000E+00 1.00000E+00 0.00000E+00
 -1       355 1.00000E+00 1.00000E+00 0.00000E+00
 -1       356 1.00000E+00 1.00000E+00 0.00000E+00
 -1       357 1.00000E+00 1.00000E+00 0.00000E+00
 -1       358 1.00000E+00 1.00000E+00 0.00000E+00
 -1       359 1.00000E+00 1.00000E+00 0.00000E+00
 -1       360 1.00000E+00 1.00000E+00 0.00000E+00
 -1       361 1.00000E+00 1.00000E+00 0.00000E+00
 -1       362 1.00000E+00 1.00000E+00 0.00000E+00
 -1       363 1.00000E+00 1.00000E+00 0.00000E+00
 -1       364 1.00000E+00 1.00000E+00 0.00000E+00
 -1       365 1.00000E+00 1.00000E+00 0.00000E+00
 -1       366 1.00000E+00 1.00000E+00 0.00000E+00
 -1       367 1.00000E+00 1.00000E+00 0.00000E+00
 -1       368 1.00000E+00 1.00000E+00 0.00000E+00
 -1       369 1.00000E+00 1.00000E+00 0.00000E+00
 -1       370 1.00000E+00 1.00000E+00 0.00000E+00
 -1       371 1.00000E+00 1.00000E+00 0.00000E+00
 -1       372 1.00000E+00 1.00000E+00 0.00000E+00
 -1       373 1.00000E+00 1.00000E+00 0.00000E+00
 -1       374 1.00000E+00 1.00000E+00 0.00000E+00
 -1       375 1.00000E+00 1.00000E+00 0.00000E+00
 -1       376 1.00000E+00 1.00000E+00 0.00000E+00
 -1       377 1.00000E+00 1.00000E+00 0.00000E+00
 -1       378 1.00000E+00 1.00000E+00 0.00000E+00
 -1       379 1.00000E+00 1.00000E+00 0.00000E+00
 -1       380 1.00000E+00 1.00000E+00 0.00000E+00
 -1       381 1.00000E+00 1.00000E+00 0.00000E+00
 -1       382 1.00000E+00 1.00000E+00 0.00000E+00
 -1       383 1.00000E+00 1.00000E+00 0.00000E+00
 -1       384 1.00000E+00 1.00000E+00 0.00000E+00
 -1       385 1.00000E+00 1.00000E+00 0.00000E+00
 -1       386 1.00000E+00 1.00000E+00 0.00000E+00
 -1       387 1.00000E+00 1.00000E+00 0.00000E+00
 -1       388 1.00000E+00 1.00000E+00 0.00000E+00
 -1       389 1.00000E+00 1.00000E+00 0.00000E+00
 -1       390 1.00000E+00 1.00000E+00 0.00000E+00
 -1       391 1.00000E+00 1.00000E+00 0.00000E+00
 -1       392 1.00000E+00 1.00000E+00 0.00000E+00
 -1       393 1.00000E+00 1.00000E+00 0.00000E+00
 -1       394 1.00000E+00 1.00000E+00 0.00000E+00
 -1       395 1.00000E+00 1.00000E+00 0.00000E+00
 -1       396 1.00000E+00 1.00000E+00 0.00000E+00
 -1       397 1.00000E+00 1.00000E+00 0.00000E+00
 -1       398 1.00000E+00 1.00000E+00 0.00000E+00
 -1       399 1.00000E+00 1.00000E+00 0.00000E+00
 -1       400 1.00000E+00 1.00000E+00 0.00000E+00
 -1       401 1.00000E+00 1.00000E+00 0.00000E+00
 -1       402 1.00000E+00 1.00000E+00 0.00000E+00
 -1       403 1.00000E+00 1.00000E+00 0.00000E+00
 -1       404 1.00000E+00 1.00000E+00 0.00000E+00
 -1       405 1.00000E+00 1.00000E+00 0.00000E+00
 -1       406 1.00000E+00 1.00000E+00 0.00000E+00
 -1       407 1.00000E+00 1.00000E+00 0.00000E+00
 -1       408 1.00000E+00 1.00000E+00 0.00000E+00
 -1       409 1.00000E+00 1.00000E+00 0.00000E+00
 -1       410 1.00000E+00 1.00000E+00 0.00000E+00
 -1       411 1.00000E+00 1.00000E+00 0.00000E+00
 -1       412 1.00000E+00 1.00000E+00 0.00000E+00
 -1       413 1.00000E+00 1.00000E+00 0.00000E+00
 -1       414 1.00000E+00 1.00000E+00 0.00000E+00
 -1       415 1.00000E+00 1.00000E+00 0.00000E+00
 -1       416 1.00000E+00 1.00000E+00 0.00000E+00
 -1       417 1.00000E+00 1.00000E+00 0.00000E+00
 -1       418 1.00000E+00 1.00000E+00 0.00000E+00
 -1       419 1.00000E+00 1.00000E+00 0.00000E+00
 -1       420 1.00000E+00 1.00000E+00 0.00000E+00
 -1       421 1.00000E+00 1.00000E+00 0.00000E+00
 -1       422 1.00000E+00 1.00000E+00 0.00000E+00
 -1       423 1.00000E+00 1.00000E+00 0.00000E+00
 -1       424 1.00000E+00 1.00000E+00 0.00000E+00
 -1       425 1.00000E+00 1.00000E+00 0.00000E+00
 -1       426 1.00000E+00 1.00000E+00 0.00000E+00
 -1       427 1.00000E+00 1.00000E+00 0.00000E+00
 -1       428 1.00000E+00 1.00000E+00 0.00000E+00
 -1       429 1.00000E+00 1.00000E+00 0.00000E+00
 -1       430 1.00000E+00 1.00000E+00 0.00000E+00
 -1       431 1.00000E+00 1.00000E+00 0.00000E+00
 -1       432 1.00000E+00 1.00000E+00 0.00000E+00
 -1       433 1.00000E+00 1.00000E+00 0.00000E+00
 -1       434 1.00000E+00 1.00000E+00 0.00000E+00
 -1       435 1.00000E+00 1.00000E+00 0.00000E+00
 -1       436 1.00000E+00 1.00000E+00 0.00000E+00
 -1       437 1.00000E+00 1.00000E+00 0.00000E+00
 -1       438 1.00000E+00 1.00000E+00 0.00000E+00
 -1       439 1.00000E+00 1.00000E+00 0.00000E+00
 -1       440 1.00000E+00 1.00000E+00 0.00000E+00
 -1       441 1.00000E+00 1.00000E+00 0.00000E+00
 -1       442 1.00000E+00 1.00000E+00 0.00000E+00
 -1       443 1.00000E+00 1.00000E+00 0.00000E+00
 -1       444 1.00000E+00 1.00000E+00 0.00000E+00
 -1       445 1.00000E+00 1.00000E+00 0.00000E+00
 -1       446 1.00000E+00 1.00000E+00 0.00000E+00
 -1       447 1.00000E+00 1.00000E+00 0.00000E+00
 -1       448 1.00000E+00 1.00000E+00 0.00000E+00
 -1       449 1.00000E+00 1.00000E+00 0.00000E+00
 -1       450 1.00000E+00 1.00000E+00 0.00000E+00
 -1       451 1.00000E+00 1.00000E+00 0.00000E+00
 -1       452 1.00000E+00 1.00000E+00 0.00000E+00
 -1       453 1.00000E+00 1.00000E+00 0.00000E+00
 -1       454 1.00000E+00 1.00000E+00 0.00000E+00
 -1       455 1.00000E+00 1.00000E+00 0.00000E+00
 -1       456 1.00000E+00 1.00000E+00 0.00000E+00
 -1       457 1.00000E+00 1.00000E+00 0.00000E+00
 -1       458 1.00000E+00 1.00000E+00 0.00000E+00
 -1       459 1.00000E+00 1.00000E+00 0.00000E+00
 -1       460 1.00000E+00 1.00000E+00 0.00000E+00
 -1       461 1.00000E+00 1.00000E+00 0.00000E+00
 -1       462 1.00000E+00 1.00000E+00 0.00000E+00
 -1       463 1.00000E+00 1.00000E+00 0.00000E+00
 -1       464 1.00000E+00 1.00000E+00 0.00000E+00
 -1       465 1.00000E+00 1.00000E+00 0.00000E+00
 -1       466 1.00000E+00 1.00000E+00 0.00000E+00
 -1       467 1.00000E+00 1.00000E+00 0.00000E+00
 -1       468 1.00000E+00 1.00000E+00 0.00000E+00
 -1       469 1.00000E+00 1.00000E+00 0.00000E+00
 -1       470 1.00000E+00 1.00000E+00 0.00000E+00
 -1       471 1.00000E+00 1.00000E+00 0.00000E+00
 -1       472 1.00000E+00 1.00000E+00 0.00000E+00
 -1       473 1.00000E+00 1.00000E+00 0.00000E+00
 -1       474 1.00000E+00 1.00000E+00 0.00000E+00
 -1       475 1.00000E+00 1.00000E+00 0.00000E+00
 -1       476 1.00000E+00 1.00000E+00 0.00000E+00
 -1       477 1.00000E+00 1.00000E+00 0.00000E+00
 -1       478 1.00000E+00 1.00000E+00 0.00000E+00
 -1       479 1.00000E+00 1.00000E+00 0.00000E+00
 -1       480 1.00000E+00 1.00000E+00 0.00000E+00
 -1       481 1.00000E+00 1.00000E+00 0.00000E+00
 -1       482 1.00000E+00 1.00000E+00 0.00000E+00
 -1       483 1.00000E+00 1.00000E+00 0.00000E+00
 -1       484 1.00000E+00 1.00000E+00 0.00000E+00
 -1       485 1.00000E+00 1.00000E+00 0.00000E+00
 -1       486 1.00000E+00 1.00000E+00 0.00000E+00
 -1       487 1.00000E+00 1.00000E+00 0.00000E+00
 -1       488 1.00000E+00 1.00000E+00 0.00000E+00
 -1       489 1.00000E+00 1.00000E+00 0.00000E+00
 -1       490 1.00000E+00 1.00000E+00 0.00000E+00
 -1       491 1.00000E+00 1.00000E+00 0.00000E+00
 -1       492 1.00000E+00 1.00000E+00 0.00000E+00
 -1       493 1.00000E+00 1.00000E+00 0.00000E+00
 -1       494 1.00000E+00 1.00000E+00 0.00000E+00
 -1       495 1.00000E+00 1.00000E+00 0.00000E+00
 -1       496 1.00000E+00 1.00000E+00 0.00000E+00
 -1       497 1.00000E+00 1.00000E+00 0.00000E+00
 -1       498 1.00000E+00 1.00000E+00 0.00000E+00
 -1       499 1.00000E+00 1.00000E+00 0.00000E+00
 -1       500 1.00000E+00 1.00000E+00 0.00000E+00
 -1       501 1.00000E+00 1.00000E+00 0.00000E+00
 -1       502 1.00000E+00 1.00000E+00 0.00000E+00
 -1       503 1.00000E+00 1.00000E+00 0.00000E+00
 -1       504 1.00000E+00 1.00000E+00 0.00000E+00
 -1       505 1.00000E+00 1.00000E+00 0.00000E+00
 -1       506 1.00000E+00 1.00000E+00 0.00000E+00
 -1       507 1.00000E+00 1.00000E+00 0.00000E+00
 -1       508 1.00000E+00 1.00000E+00 0.00000E+00
 -1       509 1.00000E+00 1.00000E+00 0.00000E+00
 -1       510 1.00000E+00 1.00000E+00 0.00000E+00
 -1       511 7.32826E-01 6.60543E-01-1.67282E-03
 -1       512 9.14033E-01 8.80121E-01 4.70716E-02
 -1       513 4.63993E-01 3.99681E-01 7.17247E-02
 -1       514 4.65747E-01 3.99155E-01-7.40471E-02
 -1       515 9.16600E-01 8.84120E-01-4.64685E-02
 -1       516 3.88928E-01 3.41664E-01-3.89045E-04
 -1       517 7.34438E-01 6.55728E-01 9.18028E-02
 -1       518 9.38648E-01 9.23111E-01-1.18489E-04
 -1       519 7.34892E-01 6.56498E-01-8.92049E-02
 -1       520 9.56717E-01 9.53811E-01-4.21780E-02
 -1       521 9.58138E-01 9.58590E-01 4.18386E-02
 -1       522 3.34428E-01 2.82177E-01-8.84489E-02
 -1       523 3.22417E-01 2.69213E-01 8.73817E-02
 -1       524 8.68577E-01 8.16683E-01 1.80692E-02
 -1       525 5.22630E-01 4.59051E-01-2.72767E-02
 -1       526 6.57888E-01 5.82801E-01 5.16175E-02
 -1       527 8.05510E-01 7.41081E-01-5.47846E-02
 -1       528 9.69303E-01 9.63723E-01-1.70561E-02
 -1       529 8.47154E-01 7.93553E-01-8.90410E-02
 -1       530 2.95513E-01 2.61824E-01-3.05426E-02
 -1       531 8.50228E-01 7.97739E-01 8.76793E-02
 -1       532 2.95431E-01 2.63456E-01 3.03502E-02
 -1       533 5.94716E-01 5.06331E-01 1.19218E-01
 -1       534 9.69430E-01 9.63936E-01 1.60739E-02
 -1       535 5.88415E-01 4.99998E-01-1.19409E-01
 -1       536 5.27071E-01 4.63373E-01 2.22275E-02
 -1       537 6.50306E-01 5.74542E-01-6.31822E-02
 -1       538 8.87227E-01 8.41204E-01-1.95720E-02
 -1       539 7.95341E-01 7.28353E-01 5.16674E-02
 -1       540 4.67178E-01 3.77572E-01-1.36964E-01
 -1       541 9.85561E-01 9.91123E-01 1.63072E-02
 -1       542 2.11884E-01 1.85718E-01 3.64871E-02
 -1       543 4.66609E-01 3.77766E-01 1.36658E-01
 -1       544 9.08471E-01 8.90828E-01 7.63452E-02
 -1       545 2.08403E-01 1.82717E-01-3.68144E-02
 -1       546 9.84286E-01 9.91659E-01-1.63086E-02
 -1       547 9.07166E-01 8.90809E-01-7.72029E-02
 -1       548 1.92196E-01 1.58039E-01-7.46180E-02
 -1       549 9.77963E-01 9.98644E-01 2.45831E-02
 -1       550 9.77481E-01 9.97362E-01-2.53923E-02
 -1       551 1.95993E-01 1.58780E-01 7.66219E-02
 -1       552 9.65989E-02 9.29224E-02-3.47115E-02
 -1       553 1.07172E-01 9.10485E-02-4.81950E-02
 -1       554 2.81311E-01 2.09820E-01-1.24351E-01
 -1       555 1.06355E-01 8.91536E-02 4.78151E-02
 -1       556 1.02856E-01 9.30597E-02 3.29701E-02
 -1       557 2.80517E-01 2.09461E-01 1.24785E-01
 -1       558 9.86014E-01 1.00685E+00-1.28542E-02
 -1       559 9.91584E-01 1.00357E+00-1.06726E-02
 -1       560 9.56478E-01 9.83861E-01-4.42042E-02
 -1       561 9.91822E-01 1.00374E+00 1.02449E-02
 -1       562 9.86345E-01 1.00698E+00 1.23566E-02
 -1       563 9.56545E-01 9.84936E-01 4.40828E-02
 -1       564 1.14303E-01 1.07895E-01 2.28653E-02
 -1       565 1.15335E-01 1.10697E-01 1.56201E-02
 -1       566 1.82879E-01 1.62540E-01 4.98752E-02
 -1       567 2.67797E-01 2.30746E-01 6.02599E-02
 -1       568 2.61289E-01 2.15931E-01 8.63030E-02
 -1       569 1.56511E-01 1.51385E-01 2.03573E-02
 -1       570 1.52954E-01 1.48060E-01 1.15154E-02
 -1       571 2.55343E-01 2.25953E-01 3.46879E-02
 -1       572 1.52915E-01 1.48072E-01-1.14723E-02
 -1       573 1.60601E-01 1.54088E-01-1.85386E-02
 -1       574 2.06325E-01 1.89856E-01-9.69549E-05
 -1       575 3.42867E-01 3.02682E-01-1.73506E-02
 -1       576 3.43043E-01 3.03297E-01 1.67964E-02
 -1       577 1.08458E-01 1.06351E-01-1.89241E-02
 -1       578 1.14411E-01 1.07360E-01-2.66212E-02
 -1       579 2.55138E-01 2.24974E-01-3.36451E-02
 -1       580 2.71854E-01 2.34848E-01-6.00132E-02
 -1       581 1.73749E-01 1.56468E-01-4.86296E-02
 -1       582 2.65461E-01 2.20409E-01-8.45543E-02
 -1       583 9.93938E-01 1.00135E+00 6.60145E-03
 -1       584 9.93205E-01 1.00162E+00 9.57618E-03
 -1       585 9.74060E-01 9.76901E-01 2.76334E-02
 -1       586 9.84488E-01 9.95296E-01 1.98015E-02
 -1       587 9.69293E-01 9.81470E-01 3.43319E-02
 -1       588 9.89064E-01 9.93901E-01 4.01589E-03
 -1       589 9.88808E-01 9.95873E-01 8.51865E-03
 -1       590 9.78170E-01 9.78909E-01 1.74821E-02
 -1       591 9.88873E-01 9.95382E-01-8.89079E-03
 -1       592 9.89169E-01 9.93956E-01-4.13517E-03
 -1       593 9.55526E-01 9.44272E-01-1.03961E-02
 -1       594 9.79849E-01 9.84514E-01 9.62580E-06
 -1       595 9.55479E-01 9.44482E-01 9.66547E-03
 -1       596 9.93064E-01 1.00175E+00-9.36547E-03
 -1       597 9.93693E-01 1.00147E+00-6.89295E-03
 -1       598 9.77425E-01 9.79083E-01-1.77805E-02
 -1       599 9.84226E-01 9.93625E-01-2.02351E-02
 -1       600 9.72700E-01 9.75187E-01-2.78284E-02
 -1       601 9.68511E-01 9.78604E-01-3.50902E-02
 -1       602 5.18386E-01 4.17249E-01 1.57478E-01
 -1       603 4.11927E-01 3.17933E-01 1.48512E-01
 -1       604 3.96828E-01 3.24848E-01 1.14675E-01
 -1       605 3.35888E-01 2.63662E-01 1.20697E-01
 -1       606 6.67847E-01 5.77857E-01 1.39970E-01
 -1       607 5.79514E-01 4.82096E-01 1.46426E-01
 -1       608 5.32222E-01 4.42549E-01 1.29102E-01
 -1       609 8.52360E-01 8.11782E-01 1.01880E-01
 -1       610 7.90745E-01 7.27848E-01 1.19216E-01
 -1       611 7.96774E-01 7.28266E-01 9.17446E-02
 -1       612 7.33323E-01 6.52419E-01 1.22928E-01
 -1       613 6.66981E-01 5.82128E-01 1.06290E-01
 -1       614 9.22934E-01 9.29510E-01 7.11128E-02
 -1       615 8.79442E-01 8.60379E-01 9.48725E-02
 -1       616 8.81895E-01 8.46008E-01 8.35080E-02
 -1       617 9.49905E-01 9.59462E-01 5.21182E-02
 -1       618 9.35697E-01 9.26882E-01 5.86773E-02
 -1       619 4.11318E-01 3.16305E-01-1.48984E-01
 -1       620 5.18213E-01 4.16670E-01-1.57645E-01
 -1       621 3.39610E-01 2.67795E-01-1.21346E-01
 -1       622 4.02704E-01 3.30087E-01-1.14388E-01
 -1       623 5.75874E-01 4.78723E-01-1.46792E-01
 -1       624 6.65055E-01 5.74425E-01-1.40562E-01
 -1       625 5.29182E-01 4.39370E-01-1.29575E-01
 -1       626 7.88631E-01 7.24722E-01-1.20300E-01
 -1       627 8.50564E-01 8.09249E-01-1.02547E-01
 -1       628 7.33705E-01 6.52810E-01-1.22099E-01
 -1       629 7.95523E-01 7.26026E-01-9.13872E-02
 -1       630 6.64240E-01 5.79625E-01-1.05194E-01
 -1       631 8.78728E-01 8.60658E-01-9.53750E-02
 -1       632 9.22206E-01 9.29611E-01-7.12867E-02
 -1       633 8.79805E-01 8.43948E-01-8.46752E-02
 -1       634 9.34418E-01 9.24124E-01-5.91618E-02
 -1       635 9.49343E-01 9.57096E-01-5.23027E-02
 -1       636 8.05830E-01 7.41500E-01 9.61139E-03
 -1       637 8.77968E-01 8.29458E-01-1.41837E-03
 -1       638 8.17333E-01 7.54869E-01-1.26490E-02
 -1       639 7.65191E-01 6.95042E-01 2.61824E-02
 -1       640 8.33924E-01 7.73792E-01 3.39808E-02
 -1       641 6.33407E-01 5.61948E-01-1.47872E-02
 -1       642 5.25139E-01 4.61706E-01-2.54887E-03
 -1       643 6.35764E-01 5.64401E-01 1.02117E-02
 -1       644 6.92081E-01 6.18475E-01-3.23277E-02
 -1       645 5.88233E-01 5.17446E-01-4.57046E-02
 -1       646 5.94565E-01 5.23645E-01 3.74292E-02
 -1       647 6.95777E-01 6.22506E-01 2.47741E-02
 -1       648 7.30153E-01 6.56781E-01 5.27407E-02
 -1       649 7.71069E-01 7.01551E-01-2.98918E-02
 -1       650 7.32477E-01 6.59276E-01-6.05009E-02
 -1       651 8.49212E-01 7.92901E-01-3.59762E-02
 -1       652 9.57260E-01 9.45938E-01 3.30744E-02
 -1       653 9.39964E-01 9.21377E-01 4.72689E-02
 -1       654 9.13789E-01 8.84316E-01 6.27228E-02
 -1       655 9.44966E-01 9.25770E-01 2.98827E-02
 -1       656 9.27749E-01 8.98769E-01 1.93087E-02
 -1       657 8.93075E-01 8.49449E-01 3.47766E-02
 -1       658 8.60170E-01 8.07563E-01 5.21004E-02
 -1       659 8.25852E-01 7.62807E-01 7.20099E-02
 -1       660 8.84222E-01 8.40106E-01 6.67433E-02
 -1       661 3.95392E-01 3.35942E-01 8.24181E-02
 -1       662 3.44792E-01 2.98547E-01 5.97402E-02
 -1       663 4.63697E-01 3.88820E-01 1.02907E-01
 -1       664 5.31525E-01 4.53223E-01 9.68504E-02
 -1       665 6.25689E-01 5.45487E-01 8.50255E-02
 -1       666 5.64799E-01 4.92580E-01 6.35735E-02
 -1       667 4.95498E-01 4.32159E-01 4.71719E-02
 -1       668 4.16970E-01 3.65653E-01 2.89473E-02
 -1       669 3.81517E-01 3.33837E-01 5.02458E-02
 -1       670 4.01597E-01 3.40624E-01-8.36682E-02
 -1       671 4.65346E-01 3.88926E-01-1.04511E-01
 -1       672 3.45278E-01 2.98856E-01-6.04885E-02
 -1       673 3.83209E-01 3.33351E-01-5.08491E-02
 -1       674 4.13593E-01 3.63762E-01-3.12754E-02
 -1       675 4.93553E-01 4.28853E-01-5.08940E-02
 -1       676 5.61969E-01 4.87238E-01-7.16426E-02
 -1       677 6.18955E-01 5.38240E-01-9.13004E-02
 -1       678 5.28739E-01 4.49567E-01-9.78811E-02
 -1       679 9.39669E-01 9.20479E-01-4.65651E-02
 -1       680 9.57634E-01 9.47187E-01-3.24747E-02
 -1       681 9.15059E-01 8.86367E-01-6.22989E-02
 -1       682 8.84793E-01 8.40613E-01-6.68361E-02
 -1       683 8.28873E-01 7.67031E-01-7.35038E-02
 -1       684 8.66224E-01 8.16702E-01-5.25430E-02
 -1       685 9.02970E-01 8.63305E-01-3.43874E-02
 -1       686 9.34643E-01 9.09003E-01-1.99962E-02
 -1       687 9.45944E-01 9.27695E-01-3.00785E-02
 -1       688 4.57478E-01 4.00020E-01-1.23612E-02
 -1       689 4.60097E-01 4.02608E-01 9.85373E-03
 -1       690 6.97577E-01 6.19390E-01 7.27125E-02
 -1       691 7.65779E-01 6.92356E-01 7.13259E-02
 -1       692 9.08102E-01 8.72222E-01 7.36552E-03
 -1       693 9.15915E-01 8.83336E-01-8.33476E-03
 -1       694 7.71529E-01 6.99173E-01-7.16810E-02
 -1       695 6.94290E-01 6.15380E-01-7.73339E-02
 -1       696 2.64801E-01 3.37167E-01-1.77002E-03
 -1       697 5.31502E-01 5.95951E-01 7.31004E-02
 -1       698 8.36857E-02 1.16267E-01 4.56874E-02
 -1       699 8.41194E-02 1.18266E-01-4.77577E-02
 -1       700 5.37252E-01 6.01946E-01-7.23730E-02
 -1       701 5.69879E-02 7.17051E-02 1.30614E-04
 -1       702 2.63814E-01 3.42865E-01 9.16154E-02
 -1       703 5.97048E-01 6.43200E-01-9.63858E-05
 -1       704 2.64974E-01 3.43156E-01-8.89273E-02
 -1       705 6.68462E-01 7.22125E-01-8.69533E-02
 -1       706 6.75718E-01 7.27553E-01 8.71334E-02
 -1       707 4.21577E-02 4.58824E-02-4.26183E-02
 -1       708 4.01411E-02 4.27941E-02 4.17894E-02
 -1       709 4.40183E-01 5.06792E-01 2.41123E-02
 -1       710 1.11429E-01 1.54630E-01-1.98678E-02
 -1       711 1.99401E-01 2.64169E-01 4.59088E-02
 -1       712 3.48781E-01 4.25520E-01-6.37971E-02
 -1       713 7.03718E-01 7.40234E-01-3.10763E-02
 -1       714 4.06184E-01 4.93411E-01-1.19366E-01
 -1       715 3.01244E-02 3.67411E-02-1.70467E-02
 -1       716 4.11218E-01 4.99415E-01 1.19365E-01
 -1       717 3.02637E-02 3.60968E-02 1.70959E-02
 -1       718 1.53352E-01 2.07126E-01 8.91307E-02
 -1       719 7.04086E-01 7.38793E-01 2.90426E-02
 -1       720 1.49312E-01 2.01532E-01-8.79436E-02
 -1       721 1.13602E-01 1.59730E-01 1.62806E-02
 -1       722 1.91595E-01 2.57128E-01-5.43487E-02
 -1       723 4.72909E-01 5.37240E-01-2.68152E-02
 -1       724 3.34319E-01 4.10152E-01 5.78804E-02
 -1       725 9.28213E-02 1.09167E-01-7.73845E-02
 -1       726 8.02167E-01 8.25700E-01 3.35460E-02
 -1       727 1.70648E-02 1.00243E-02 1.75870E-02
 -1       728 9.27321E-02 1.09417E-01 7.77207E-02
 -1       729 5.33496E-01 6.22222E-01 1.33813E-01
 -1       730 1.65312E-02 1.00715E-02-1.77100E-02
 -1       731 8.02168E-01 8.22254E-01-3.39303E-02
 -1       732 5.33805E-01 6.22175E-01-1.36363E-01
 -1       733 2.27144E-02 1.95003E-03-2.60776E-02
 -1       734 8.13121E-01 8.45195E-01 7.41627E-02
 -1       735 7.96536E-01 8.35150E-01-7.80277E-02
 -1       736 2.20899E-02 9.54654E-04 2.53170E-02
 -1       737 8.83506E-03-4.59231E-03-1.07424E-02
 -1       738 1.38311E-02-7.07744E-03-1.31279E-02
 -1       739 4.34878E-02 1.59514E-02-4.46332E-02
 -1       740 8.59491E-03-4.84862E-03 1.03709E-02
 -1       741 1.35185E-02-7.20588E-03 1.26985E-02
 -1       742 4.32167E-02 1.51962E-02 4.44427E-02
 -1       743 8.93301E-01 9.03678E-01-3.36690E-02
 -1       744 8.89791E-01 9.07571E-01-4.94749E-02
 -1       745 7.16524E-01 7.87742E-01-1.24773E-01
 -1       746 9.05321E-01 9.08240E-01 3.50493E-02
 -1       747 8.95807E-01 9.10929E-01 4.70556E-02
 -1       748 7.20063E-01 7.92363E-01 1.25632E-01
 -1       749 6.73799E-03-1.29158E-03 7.37252E-03
 -1       750 7.96671E-03-2.06609E-03 9.75958E-03
 -1       751 2.65712E-02 2.47815E-02 2.83790E-02
 -1       752 1.56635E-02 4.16762E-03 1.98634E-02
 -1       753 2.94076E-02 1.91892E-02 3.50563E-02
 -1       754 1.06508E-02 5.54711E-03 4.17586E-03
 -1       755 1.10199E-02 4.32246E-03 8.97521E-03
 -1       756 2.31898E-02 2.19363E-02 1.83273E-02
 -1       757 1.09401E-02 4.16090E-03-8.81745E-03
 -1       758 1.05356E-02 5.58401E-03-4.07365E-03
 -1       759 4.21060E-02 5.36602E-02-1.04171E-02
 -1       760 1.87773E-02 1.37677E-02 1.77691E-05
 -1       761 4.22002E-02 5.32744E-02 1.02487E-02
 -1       762 7.84047E-03-2.05834E-03-9.80214E-03
 -1       763 6.57985E-03-1.44659E-03-7.34887E-03
 -1       764 2.28164E-02 2.21258E-02-1.83472E-02
 -1       765 2.73456E-02 2.62411E-02-2.89304E-02
 -1       766 1.63478E-02 5.13121E-03-2.05117E-02
 -1       767 3.04908E-02 2.13709E-02-3.59089E-02
 -1       768 8.90378E-01 8.94618E-01 1.41658E-02
 -1       769 8.97575E-01 8.99042E-01 2.02475E-02
 -1       770 7.38337E-01 7.74031E-01 5.81135E-02
 -1       771 8.28632E-01 8.46652E-01 4.89312E-02
 -1       772 7.41697E-01 7.85815E-01 8.42206E-02
 -1       773 8.40205E-01 8.49712E-01 4.96266E-03
 -1       774 8.43382E-01 8.47982E-01 1.87405E-02
 -1       775 7.50777E-01 7.79569E-01 3.27755E-02
 -1       776 8.39111E-01 8.45102E-01-1.70846E-02
 -1       777 8.40237E-01 8.49680E-01-4.88690E-03
 -1       778 6.49515E-01 6.90741E-01-1.88612E-02
 -1       779 7.94216E-01 8.08775E-01 1.53246E-04
 -1       780 6.49870E-01 6.90185E-01 1.76491E-02
 -1       781 8.91410E-01 8.97749E-01-2.05400E-02
 -1       782 8.96953E-01 8.98335E-01-1.71787E-02
 -1       783 7.50064E-01 7.78546E-01-3.27279E-02
 -1       784 7.33626E-01 7.68103E-01-5.95480E-02
 -1       785 8.09866E-01 8.31845E-01-5.06074E-02
 -1       786 7.30254E-01 7.76542E-01-8.68625E-02
 -1       787 1.21356E-01 1.39419E-01 9.57218E-02
 -1       788 7.84984E-02 7.01901E-02 7.22036E-02
 -1       789 6.39371E-02 7.36976E-02 5.93370E-02
 -1       790 5.00067E-02 4.06230E-02 5.26232E-02
 -1       791 2.12063E-01 2.75506E-01 1.19984E-01
 -1       792 1.49525E-01 1.91130E-01 1.02819E-01
 -1       793 1.20288E-01 1.56417E-01 8.48662E-02
 -1       794 4.23671E-01 5.21221E-01 1.46496E-01
 -1       795 3.35503E-01 4.25020E-01 1.40413E-01
 -1       796 3.34559E-01 4.20156E-01 1.06629E-01
 -1       797 2.66463E-01 3.46564E-01 1.22955E-01
 -1       798 2.04273E-01 2.73892E-01 9.23732E-02
 -1       799 5.89540E-01 6.82378E-01 1.47477E-01
 -1       800 4.81791E-01 5.82842E-01 1.56077E-01
 -1       801 4.70966E-01 5.60381E-01 1.27794E-01
 -1       802 6.01954E-01 6.74644E-01 1.13052E-01
 -1       803 6.64638E-01 7.36186E-01 1.21592E-01
 -1       804 1.21580E-01 1.39505E-01-9.53441E-02
 -1       805 7.85497E-02 7.02283E-02-7.18386E-02
 -1       806 6.52270E-02 7.59539E-02-5.93995E-02
 -1       807 5.07965E-02 4.28099E-02-5.29976E-02
 -1       808 2.09489E-01 2.72571E-01-1.19622E-01
 -1       809 1.47899E-01 1.88141E-01-1.01891E-01
 -1       810 1.18586E-01 1.53979E-01-8.39851E-02
 -1       811 4.20674E-01 5.17882E-01-1.46558E-01
 -1       812 3.32515E-01 4.22767E-01-1.40321E-01
 -1       813 3.33060E-01 4.17430E-01-1.05157E-01
 -1       814 2.66377E-01 3.46812E-01-1.21912E-01
 -1       815 2.02493E-01 2.70855E-01-9.09070E-02
 -1       816 5.88246E-01 6.81773E-01-1.48353E-01
 -1       817 4.81642E-01 5.82664E-01-1.57393E-01
 -1       818 4.68335E-01 5.57332E-01-1.29041E-01
 -1       819 5.99453E-01 6.70952E-01-1.13662E-01
 -1       820 6.59889E-01 7.31466E-01-1.20368E-01
 -1       821 4.55859E-01 5.21010E-01-1.59899E-03
 -1       822 3.48124E-01 4.20104E-01 1.08916E-02
 -1       823 3.63214E-01 4.34788E-01-1.47028E-02
 -1       824 3.85802E-01 4.58165E-01 4.14100E-02
 -1       825 2.99448E-01 3.72642E-01 2.78744E-02
 -1       826 1.12763E-01 1.57086E-01-1.95184E-03
 -1       827 1.81460E-01 2.42159E-01-1.27653E-02
 -1       828 1.82497E-01 2.44012E-01 9.07342E-03
 -1       829 1.49344E-01 2.04600E-01-3.61357E-02
 -1       830 2.27383E-01 2.96429E-01-2.97220E-02
 -1       831 1.53591E-01 2.10073E-01 3.00337E-02
 -1       832 2.30911E-01 2.99969E-01 2.31566E-02
 -1       833 2.63361E-01 3.35825E-01 5.25254E-02
 -1       834 2.65783E-01 3.40052E-01-6.08362E-02
 -1       835 3.06139E-01 3.79755E-01-3.24722E-02
 -1       836 4.08966E-01 4.80519E-01-4.57764E-02
 -1       837 6.01447E-01 6.61986E-01 8.34293E-02
 -1       838 6.58209E-01 7.03981E-01 5.95877E-02
 -1       839 5.33501E-01 6.09153E-01 1.02472E-01
 -1       840 5.64280E-01 6.17907E-01 2.93421E-02
 -1       841 6.15518E-01 6.64342E-01 5.01442E-02
 -1       842 4.85670E-01 5.50684E-01 4.92475E-02
 -1       843 4.28741E-01 5.01997E-01 6.76650E-02
 -1       844 3.73163E-01 4.54368E-01 8.84266E-02
 -1       845 4.69421E-01 5.47557E-01 9.73986E-02
 -1       846 5.88157E-02 7.75490E-02 4.63032E-02
 -1       847 4.37308E-02 5.50444E-02 3.31116E-02
 -1       848 8.53887E-02 1.14331E-01 6.25172E-02
 -1       849 1.73649E-01 2.36430E-01 6.97796E-02
 -1       850 1.16286E-01 1.60374E-01 6.68273E-02
 -1       851 1.36171E-01 1.87330E-01 4.87637E-02
 -1       852 9.74979E-02 1.37797E-01 3.26156E-02
 -1       853 6.51846E-02 9.12430E-02 1.87638E-02
 -1       854 5.40001E-02 7.26032E-02 2.99117E-02
 -1       855 6.08952E-02 8.00530E-02-4.71304E-02
 -1       856 8.60541E-02 1.15017E-01-6.30296E-02
 -1       857 4.36742E-02 5.54110E-02-3.34795E-02
 -1       858 6.46796E-02 8.93637E-02-2.04026E-02
 -1       859 5.36559E-02 7.35524E-02-3.04197E-02
 -1       860 9.64657E-02 1.36279E-01-3.50916E-02
 -1       861 1.32649E-01 1.85021E-01-5.31575E-02
 -1       862 1.68203E-01 2.29903E-01-7.32077E-02
 -1       863 1.14662E-01 1.58822E-01-6.71162E-02
 -1       864 6.01179E-01 6.61633E-01-8.20904E-02
 -1       865 6.61725E-01 7.07032E-01-5.90613E-02
 -1       866 5.37422E-01 6.12560E-01-1.03012E-01
 -1       867 3.77612E-01 4.59490E-01-9.13832E-02
 -1       868 4.69622E-01 5.47453E-01-9.72222E-02
 -1       869 4.38846E-01 5.12675E-01-7.05043E-02
 -1       870 5.05378E-01 5.69204E-01-4.99116E-02
 -1       871 5.82600E-01 6.34534E-01-3.14145E-02
 -1       872 6.18514E-01 6.67985E-01-5.07560E-02
 -1       873 8.17535E-02 1.11286E-01-8.28597E-03
 -1       874 8.20628E-02 1.14106E-01 6.70073E-03
 -1       875 2.30558E-01 3.03057E-01 6.82616E-02
 -1       876 2.97771E-01 3.76509E-01 7.56668E-02
 -1       877 5.16471E-01 5.76645E-01 1.04522E-02
 -1       878 5.34101E-01 5.92187E-01-1.18800E-02
 -1       879 3.05414E-01 3.84569E-01-7.73806E-02
 -1       880 2.27459E-01 2.99467E-01-7.16165E-02
 -1       881 5.23381E-01 5.27209E-01 1.62284E-01
 -1       882 3.11941E-01 2.92434E-01 1.57648E-01
 -1       883 2.39822E-01 1.74104E-01 1.25835E-01
 -1       884 7.36054E-01 8.00311E-01 1.31139E-01
 -1       885 6.91182E-01 7.11918E-01 1.58015E-01
 -1       886 2.28908E-01 1.79442E-01 1.36647E-01
 -1       887 5.72438E-01 5.97445E-01 1.56218E-01
 -1       888 4.34831E-01 4.10587E-01 1.56508E-01
 -1       889 7.69852E-01 8.17999E-01 1.37589E-01
 -1       890 7.61173E-01 8.02150E-01 1.46309E-01
 -1       891 1.25911E-01 5.65839E-02 8.15607E-02
 -1       892 8.76833E-01 9.45192E-01 8.24531E-02
 -1       893 2.36682E-01 1.97967E-01 1.43873E-01
 -1       894 5.36551E-01 5.26198E-01 1.63397E-01
 -1       895 6.57181E-01 6.96021E-01 1.52919E-01
 -1       896 3.67752E-01 3.53412E-01 1.60784E-01
 -1       897 1.43356E-01 8.71592E-02 9.93913E-02
 -1       898 8.25086E-01 8.60117E-01 1.23299E-01
 -1       899 7.20977E-01 7.66694E-01 1.31624E-01
 -1       900 5.40890E-01 5.59675E-01 1.66943E-01
 -1       901 1.76302E-01 1.40836E-01 1.22245E-01
 -1       902 4.64881E-01 4.48002E-01 1.66361E-01
 -1       903 8.41802E-01 9.00351E-01 1.06389E-01
 -1       904 2.88718E-01 2.46748E-01 1.34156E-01
 -1       905 3.79062E-01 3.43641E-01 1.56158E-01
 -1       906 5.48936E-01 5.75776E-01 1.59467E-01
 -1       907 6.69834E-01 6.91143E-01 1.56560E-01
 -1       908 3.77889E-01 3.35000E-01 1.50833E-01
 -1       909 4.48071E-01 4.52718E-01 1.64418E-01
 -1       910 9.10582E-01 9.63867E-01 6.61849E-02
 -1       911 1.72625E-01 1.20466E-01 1.02412E-01
 -1       912 1.24899E-01 8.79966E-02 1.00739E-01
 -1       913 3.86631E-01 3.34799E-01 1.66584E-01
 -1       914 8.27571E-01 8.79803E-01 1.02005E-01
 -1       915 8.75978E-01 9.12772E-01 9.88848E-02
 -1       916 6.17454E-01 6.68127E-01 1.65812E-01
 -1       917 9.00832E-02 3.69983E-02 6.75331E-02
 -1       918 9.42585E-01 9.94051E-01 4.23631E-02
 -1       919 5.86032E-02 5.38575E-03 4.44457E-02
 -1       920 8.43862E-01 8.90578E-01 1.12039E-01
 -1       921 1.61912E-01 1.11476E-01 1.14714E-01
 -1       922 7.83439E-02 4.72985E-02 6.99339E-02
 -1       923 9.58608E-02 5.79266E-02 7.52793E-02
 -1       924 2.52958E-01 1.86055E-01 1.40266E-01
 -1       925 3.46262E-02 1.94249E-03 2.92074E-02
 -1       926 2.60974E-02-4.80383E-03 2.23459E-02
 -1       927 7.12908E-02 1.53753E-02 5.43446E-02
 -1       928 9.66848E-01 9.96616E-01 2.89403E-02
 -1       929 9.74291E-01 1.00465E+00 2.22122E-02
 -1       930 9.28935E-01 9.85490E-01 5.33041E-02
 -1       931 9.26624E-01 9.51029E-01 6.82887E-02
 -1       932 9.05108E-01 9.42628E-01 7.57506E-02
 -1       933 7.47895E-01 8.14729E-01 1.39019E-01
 -1       934 6.27171E-02 4.17821E-02 6.00626E-02
 -1       935 7.11299E-02 4.23487E-02 6.51600E-02
 -1       936 1.77423E-01 1.39540E-01 1.26478E-01
 -1       937 1.31721E-01 9.19206E-02 1.05325E-01
 -1       938 2.01435E-01 1.55743E-01 1.33005E-01
 -1       939 8.92031E-02 5.90656E-02 7.64471E-02
 -1       940 9.44122E-02 6.59254E-02 8.39361E-02
 -1       941 1.52704E-01 1.14228E-01 1.14327E-01
 -1       942 7.19192E-02 3.59464E-02 6.27162E-02
 -1       943 7.39700E-02 4.40652E-02 6.43505E-02
 -1       944 1.85202E-01 1.30264E-01 1.18894E-01
 -1       945 1.13345E-01 8.16978E-02 8.79314E-02
 -1       946 2.02947E-01 1.62260E-01 1.30987E-01
 -1       947 4.43733E-02 1.22438E-02 3.92437E-02
 -1       948 4.94300E-02 1.84397E-02 4.48792E-02
 -1       949 1.16797E-01 6.02838E-02 8.43366E-02
 -1       950 1.10949E-01 4.64862E-02 7.68335E-02
 -1       951 6.78673E-02 1.71179E-02 5.32894E-02
 -1       952 9.06558E-02 2.68127E-02 6.37009E-02
 -1       953 9.50429E-01 9.81826E-01 4.48151E-02
 -1       954 9.55459E-01 9.90234E-01 3.86131E-02
 -1       955 8.91050E-01 9.54210E-01 7.56912E-02
 -1       956 9.39239E-01 9.83210E-01 4.89893E-02
 -1       957 9.11312E-01 9.73923E-01 6.22491E-02
 -1       958 9.18807E-01 9.50751E-01 6.87557E-02
 -1       959 9.21170E-01 9.59736E-01 6.63951E-02
 -1       960 8.77432E-01 9.35146E-01 8.72912E-02
 -1       961 9.08420E-01 9.33469E-01 8.24094E-02
 -1       962 9.11250E-01 9.40946E-01 7.59152E-02
 -1       963 7.96308E-01 8.36908E-01 1.31878E-01
 -1       964 8.86093E-01 9.17322E-01 8.83592E-02
 -1       965 8.06717E-01 8.61437E-01 1.22053E-01
 -1       966 9.33129E-01 9.58045E-01 6.40990E-02
 -1       967 9.34248E-01 9.60470E-01 6.21151E-02
 -1       968 8.48884E-01 8.85877E-01 1.13592E-01
 -1       969 8.22556E-01 8.61506E-01 1.25706E-01
 -1       970 8.76766E-01 9.09296E-01 9.86368E-02
 -1       971 7.99820E-01 8.46167E-01 1.32638E-01
 -1       972 4.70898E-01 3.97940E-01 1.70561E-01
 -1       973 3.70882E-01 2.93976E-01 1.64372E-01
 -1       974 3.07494E-01 2.65568E-01 1.57819E-01
 -1       975 2.79160E-01 2.22432E-01 1.50568E-01
 -1       976 5.87915E-01 5.53112E-01 1.61593E-01
 -1       977 5.02214E-01 4.52828E-01 1.68176E-01
 -1       978 4.26793E-01 3.91211E-01 1.67895E-01
 -1       979 7.75220E-01 7.99446E-01 1.22356E-01
 -1       980 7.10795E-01 7.10579E-01 1.40279E-01
 -1       981 6.48520E-01 6.84539E-01 1.45493E-01
 -1       982 6.28152E-01 6.26088E-01 1.52339E-01
 -1       983 5.18902E-01 5.23151E-01 1.62165E-01
 -1       984 8.80740E-01 9.26945E-01 8.37499E-02
 -1       985 8.31256E-01 8.55486E-01 1.07155E-01
 -1       986 7.76201E-01 8.26037E-01 1.17663E-01
 -1       987 8.49362E-01 9.15668E-01 9.21933E-02
 -1       988 8.94969E-01 9.57958E-01 7.17505E-02
 -1       989 1.68839E-01 1.44731E-01 1.07603E-01
 -1       990 1.19587E-01 7.35738E-02 8.37616E-02
 -1       991 1.52211E-01 8.53965E-02 9.29285E-02
 -1       992 1.06110E-01 4.38843E-02 7.20824E-02
 -1       993 2.93437E-01 2.96657E-01 1.41814E-01
 -1       994 2.29040E-01 2.07252E-01 1.23934E-01
 -1       995 2.28389E-01 1.80530E-01 1.19541E-01
 -1       996 5.01215E-01 5.50859E-01 1.68245E-01
 -1       997 4.14667E-01 4.50767E-01 1.61878E-01
 -1       998 4.88167E-01 4.84344E-01 1.62187E-01
 -1       999 3.74952E-01 3.78099E-01 1.53160E-01
 -1      1000 3.60562E-01 3.26511E-01 1.46967E-01
 -1      1001 6.32955E-01 7.08329E-01 1.62601E-01
 -1      1002 5.32500E-01 6.03780E-01 1.70253E-01
 -1      1003 5.78190E-01 6.13773E-01 1.67743E-01
 -1      1004 6.92790E-01 7.35973E-01 1.58191E-01
 -1      1005 7.21602E-01 7.78148E-01 1.49794E-01
 -1      1006 4.57780E-01 4.33555E-01 1.60828E-01
 -1      1007 5.31094E-01 5.26499E-01 1.62823E-01
 -1      1008 4.50868E-01 4.34468E-01 1.61133E-01
 -1      1009 6.04274E-01 6.09823E-01 1.61898E-01
 -1      1010 5.96731E-01 6.09306E-01 1.60877E-01
 -1      1011 6.02729E-01 6.36892E-01 1.56667E-01
 -1      1012 5.34941E-01 5.51532E-01 1.61280E-01
 -1      1013 5.90804E-01 6.13136E-01 1.59532E-01
 -1      1014 6.63194E-01 6.93236E-01 1.54768E-01
 -1      1015 3.73324E-01 3.48837E-01 1.58810E-01
 -1      1016 4.45340E-01 4.39942E-01 1.62198E-01
 -1      1017 4.58043E-01 4.63839E-01 1.62865E-01
 -1      1018 2.74720E-01 2.45855E-01 1.53112E-01
 -1      1019 2.20338E-01 1.87619E-01 1.40675E-01
 -1      1020 3.39256E-01 3.11724E-01 1.61509E-01
 -1      1021 2.72791E-01 2.43751E-01 1.50089E-01
 -1      1022 3.38124E-01 3.23652E-01 1.59250E-01
 -1      1023 2.40929E-01 2.11940E-01 1.44652E-01
 -1      1024 4.05173E-01 4.02386E-01 1.63225E-01
 -1      1025 3.80676E-01 3.73177E-01 1.63108E-01
 -1      1026 4.51860E-01 4.50275E-01 1.65199E-01
 -1      1027 3.83228E-01 3.69278E-01 1.63818E-01
 -1      1028 1.92826E-01 1.28830E-01 1.15618E-01
 -1      1029 2.35889E-01 1.78672E-01 1.30514E-01
 -1      1030 3.03212E-01 2.59646E-01 1.48007E-01
 -1      1031 3.07848E-01 2.54818E-01 1.43084E-01
 -1      1032 1.81636E-01 1.10020E-01 1.05959E-01
 -1      1033 2.12993E-01 1.45609E-01 1.14048E-01
 -1      1034 1.63599E-01 9.61331E-02 1.02524E-01
 -1      1035 3.36588E-01 2.89825E-01 1.43080E-01
 -1      1036 3.07337E-01 2.50600E-01 1.39649E-01
 -1      1037 2.70001E-01 2.08738E-01 1.29517E-01
 -1      1038 3.80266E-01 3.39426E-01 1.53402E-01
 -1      1039 6.54473E-01 7.03329E-01 1.44985E-01
 -1      1040 7.23674E-01 7.84105E-01 1.31367E-01
 -1      1041 5.56732E-01 5.86827E-01 1.57636E-01
 -1      1042 6.45052E-01 6.92707E-01 1.48723E-01
 -1      1043 8.09379E-01 8.80044E-01 1.08947E-01
 -1      1044 8.25367E-01 8.93333E-01 1.05956E-01
 -1      1045 7.76243E-01 8.42184E-01 1.16819E-01
 -1      1046 7.52267E-01 8.07356E-01 1.33920E-01
 -1      1047 7.88094E-01 8.52532E-01 1.20598E-01
 -1      1048 6.95664E-01 7.49378E-01 1.43101E-01
 -1      1049 7.26232E-01 7.56026E-01 1.52690E-01
 -1      1050 7.81591E-01 8.14429E-01 1.39036E-01
 -1      1051 6.63451E-01 6.91692E-01 1.60976E-01
 -1      1052 5.47528E-01 5.42915E-01 1.63942E-01
 -1      1053 6.20629E-01 6.36519E-01 1.64090E-01
 -1      1054 6.13302E-01 6.18512E-01 1.63160E-01
 -1      1055 6.82665E-01 7.00987E-01 1.57417E-01
 -1      1056 7.46367E-01 7.77374E-01 1.46014E-01
 -1      1057 7.60801E-01 7.89614E-01 1.44405E-01
 -1      1058 2.96154E-01 2.61950E-01 1.50325E-01
 -1      1059 5.10008E-01 5.25669E-01 1.61391E-01
 -1      1060 4.97902E-01 5.14895E-01 1.62225E-01
 -1      1061 4.88824E-01 4.68144E-01 1.60824E-01
 -1      1062 4.56528E-01 4.29372E-01 1.59011E-01
 -1      1063 4.07567E-01 3.72222E-01 1.53498E-01
 -1      1064 7.13574E-01 7.58242E-01 1.46750E-01
 -1      1065 7.21226E-01 7.57089E-01 1.48114E-01
 -1      1066 4.98016E-01 4.96401E-01-1.62165E-01
 -1      1067 7.59277E-01 8.25156E-01-1.25228E-01
 -1      1068 3.09166E-01 2.89052E-01-1.58420E-01
 -1      1069 2.39267E-01 1.71294E-01-1.24874E-01
 -1      1070 6.90843E-01 7.11607E-01-1.58476E-01
 -1      1071 2.20521E-01 1.75792E-01-1.35303E-01
 -1      1072 5.67238E-01 5.90233E-01-1.56722E-01
 -1      1073 7.68753E-01 8.17779E-01-1.37870E-01
 -1      1074 4.34936E-01 4.10597E-01-1.56994E-01
 -1      1075 7.63461E-01 8.02090E-01-1.43285E-01
 -1      1076 8.67178E-01 9.37882E-01-8.66442E-02
 -1      1077 1.37773E-01 6.78034E-02-8.65384E-02
 -1      1078 2.32877E-01 1.90216E-01-1.47460E-01
 -1      1079 6.62856E-01 7.04009E-01-1.51669E-01
 -1      1080 3.05870E-01 2.58304E-01-1.46377E-01
 -1      1081 4.53756E-01 4.61675E-01-1.63009E-01
 -1      1082 5.43700E-01 5.34419E-01-1.62767E-01
 -1      1083 8.24529E-01 8.59618E-01-1.23472E-01
 -1      1084 5.35411E-01 5.53112E-01-1.66935E-01
 -1      1085 1.50071E-01 9.36441E-02-1.02961E-01
 -1      1086 7.21050E-01 7.66477E-01-1.31867E-01
 -1      1087 1.76742E-01 1.40378E-01-1.22323E-01
 -1      1088 4.64519E-01 4.46768E-01-1.66629E-01
 -1      1089 8.47410E-01 9.05240E-01-1.02996E-01
 -1      1090 2.78563E-01 2.33672E-01-1.31693E-01
 -1      1091 3.29391E-01 3.06005E-01-1.55804E-01
 -1      1092 3.86817E-01 3.45321E-01-1.52258E-01
 -1      1093 6.69583E-01 6.90017E-01-1.57575E-01
 -1      1094 5.95201E-01 6.33588E-01-1.55011E-01
 -1      1095 1.72496E-01 1.20124E-01-1.02079E-01
 -1      1096 9.11772E-01 9.62876E-01-6.65457E-02
 -1      1097 1.30411E-01 9.42470E-02-1.02435E-01
 -1      1098 3.87072E-01 3.34106E-01-1.66510E-01
 -1      1099 8.23896E-01 8.77888E-01-1.02864E-01
 -1      1100 9.31522E-02 4.11891E-02-7.19096E-02
 -1      1101 8.74791E-01 9.12323E-01-1.01369E-01
 -1      1102 6.13117E-01 6.65229E-01-1.66343E-01
 -1      1103 6.24894E-02 7.33329E-03-4.69534E-02
 -1      1104 9.40764E-01 9.93179E-01-4.35445E-02
 -1      1105 8.37097E-01 8.87676E-01-1.15344E-01
 -1      1106 1.56399E-01 1.04482E-01-1.07632E-01
 -1      1107 9.23982E-02 5.50356E-02-7.32567E-02
 -1      1108 7.38338E-02 4.18710E-02-6.65592E-02
 -1      1109 2.52525E-01 1.84431E-01-1.38760E-01
 -1      1110 3.64045E-02 2.49517E-03-3.03284E-02
 -1      1111 2.76152E-02-4.62021E-03-2.35600E-02
 -1      1112 7.32298E-02 1.67194E-02-5.54075E-02
 -1      1113 9.65874E-01 9.96390E-01-2.96683E-02
 -1      1114 9.73706E-01 1.00462E+00-2.27441E-02
 -1      1115 9.28124E-01 9.84967E-01-5.36757E-02
 -1      1116 9.03879E-01 9.41668E-01-7.56619E-02
 -1      1117 9.21311E-01 9.52723E-01-7.03292E-02
 -1      1118 7.46808E-01 8.13284E-01-1.40189E-01
 -1      1119 7.49974E-02 4.84132E-02-6.78200E-02
 -1      1120 6.57045E-02 4.48123E-02-6.30365E-02
 -1      1121 1.16522E-01 8.75132E-02-9.59695E-02
 -1      1122 1.77682E-01 1.38395E-01-1.26962E-01
 -1      1123 1.97674E-01 1.48267E-01-1.31563E-01
 -1      1124 9.42512E-02 6.58050E-02-8.37501E-02
 -1      1125 8.90653E-02 5.87827E-02-7.63756E-02
 -1      1126 1.55257E-01 1.17284E-01-1.15116E-01
 -1      1127 7.77346E-02 4.71202E-02-6.75904E-02
 -1      1128 7.76070E-02 3.91953E-02-6.62895E-02
 -1      1129 1.09382E-01 7.96142E-02-8.64692E-02
 -1      1130 1.84904E-01 1.32670E-01-1.19759E-01
 -1      1131 1.99984E-01 1.59867E-01-1.30119E-01
 -1      1132 4.91208E-02 1.89960E-02-4.49444E-02
 -1      1133 4.72762E-02 1.39953E-02-4.14097E-02
 -1      1134 1.21813E-01 6.60327E-02-8.84042E-02
 -1      1135 1.18625E-01 5.35726E-02-8.12640E-02
 -1      1136 7.37123E-02 2.05011E-02-5.71878E-02
 -1      1137 9.84327E-02 3.27067E-02-6.81444E-02
 -1      1138 9.53748E-01 9.82901E-01-4.25532E-02
 -1      1139 9.55613E-01 9.89884E-01-3.82686E-02
 -1      1140 8.87221E-01 9.50083E-01-7.86452E-02
 -1      1141 9.35441E-01 9.80890E-01-5.13496E-02
 -1      1142 9.06033E-01 9.70500E-01-6.50209E-02
 -1      1143 9.21445E-01 9.52511E-01-6.73353E-02
 -1      1144 9.21543E-01 9.60517E-01-6.65196E-02
 -1      1145 8.79180E-01 9.35612E-01-8.62467E-02
 -1      1146 9.08179E-01 9.33273E-01-8.25013E-02
 -1      1147 9.11058E-01 9.40893E-01-7.60103E-02
 -1      1148 7.95977E-01 8.36502E-01-1.32087E-01
 -1      1149 8.85969E-01 9.17338E-01-8.82396E-02
 -1      1150 8.08883E-01 8.63867E-01-1.21006E-01
 -1      1151 9.29361E-01 9.57742E-01-6.56470E-02
 -1      1152 9.33725E-01 9.60610E-01-6.25158E-02
 -1      1153 8.48377E-01 8.85246E-01-1.14783E-01
 -1      1154 8.68352E-01 9.08004E-01-1.05660E-01
 -1      1155 8.22864E-01 8.60659E-01-1.26394E-01
 -1      1156 7.98137E-01 8.43681E-01-1.33315E-01
 -1      1157 4.70711E-01 3.97006E-01-1.70489E-01
 -1      1158 3.69633E-01 2.93401E-01-1.63613E-01
 -1      1159 3.06946E-01 2.61998E-01-1.58955E-01
 -1      1160 2.76581E-01 2.19359E-01-1.50706E-01
 -1      1161 5.87293E-01 5.52379E-01-1.61887E-01
 -1      1162 5.01739E-01 4.51950E-01-1.68298E-01
 -1      1163 4.26586E-01 3.90483E-01-1.67974E-01
 -1      1164 7.74826E-01 7.99232E-01-1.22460E-01
 -1      1165 7.10385E-01 7.10320E-01-1.40112E-01
 -1      1166 6.46547E-01 6.81202E-01-1.45851E-01
 -1      1167 6.26490E-01 6.22264E-01-1.53055E-01
 -1      1168 5.16246E-01 5.19029E-01-1.62553E-01
 -1      1169 8.79069E-01 9.26359E-01-8.39973E-02
 -1      1170 8.28781E-01 8.54554E-01-1.07623E-01
 -1      1171 7.74306E-01 8.24679E-01-1.18215E-01
 -1      1172 8.90553E-01 9.54563E-01-7.36590E-02
 -1      1173 8.42715E-01 9.10492E-01-9.46235E-02
 -1      1174 1.19626E-01 7.34150E-02-8.36189E-02
 -1      1175 1.68961E-01 1.44463E-01-1.07093E-01
 -1      1176 1.12224E-01 4.90002E-02-7.50023E-02
 -1      1177 1.58813E-01 9.16097E-02-9.47160E-02
 -1      1178 2.24854E-01 2.00707E-01-1.22445E-01
 -1      1179 2.89288E-01 2.89594E-01-1.40038E-01
 -1      1180 2.23577E-01 1.73812E-01-1.17728E-01
 -1      1181 4.11703E-01 4.47194E-01-1.61310E-01
 -1      1182 4.97857E-01 5.47538E-01-1.68264E-01
 -1      1183 3.75314E-01 3.77872E-01-1.53121E-01
 -1      1184 4.85267E-01 4.81134E-01-1.62529E-01
 -1      1185 3.54518E-01 3.19329E-01-1.45870E-01
 -1      1186 5.28918E-01 6.02043E-01-1.70489E-01
 -1      1187 6.29092E-01 7.05929E-01-1.64118E-01
 -1      1188 5.73155E-01 6.09250E-01-1.68056E-01
 -1      1189 6.92497E-01 7.34439E-01-1.57409E-01
 -1      1190 7.21143E-01 7.77406E-01-1.50422E-01
 -1      1191 5.81152E-01 6.02059E-01-1.59726E-01
 -1      1192 6.66119E-01 6.96581E-01-1.55147E-01
 -1      1193 5.84054E-01 5.93996E-01-1.61300E-01
 -1      1194 5.45230E-01 5.65678E-01-1.60414E-01
 -1      1195 6.27950E-01 6.69014E-01-1.53375E-01
 -1      1196 4.00854E-01 3.74633E-01-1.57892E-01
 -1      1197 3.17674E-01 2.82087E-01-1.51561E-01
 -1      1198 4.13676E-01 4.00628E-01-1.60749E-01
 -1      1199 4.44595E-01 4.19868E-01-1.59299E-01
 -1      1200 3.47714E-01 3.01267E-01-1.49612E-01
 -1      1201 3.90052E-01 3.82566E-01-1.61272E-01
 -1      1202 4.74528E-01 4.79186E-01-1.62537E-01
 -1      1203 5.25158E-01 5.48434E-01-1.60560E-01
 -1      1204 5.23532E-01 5.15172E-01-1.62328E-01
 -1      1205 4.64229E-01 4.38700E-01-1.59397E-01
 -1      1206 6.08185E-01 6.13334E-01-1.62114E-01
 -1      1207 8.36377E-01 9.03561E-01-1.01712E-01
 -1      1208 8.15173E-01 8.86467E-01-1.06437E-01
 -1      1209 7.86540E-01 8.52977E-01-1.13753E-01
 -1      1210 8.01632E-01 8.66438E-01-1.16580E-01
 -1      1211 7.57129E-01 8.12595E-01-1.32628E-01
 -1      1212 7.10973E-01 7.66582E-01-1.39483E-01
 -1      1213 6.79732E-01 7.33598E-01-1.42488E-01
 -1      1214 6.54150E-01 7.02202E-01-1.44640E-01
 -1      1215 7.35891E-01 7.96864E-01-1.28382E-01
 -1      1216 2.70999E-01 2.40596E-01-1.53062E-01
 -1      1217 2.22160E-01 1.89568E-01-1.40623E-01
 -1      1218 3.37983E-01 3.09758E-01-1.61579E-01
 -1      1219 3.82159E-01 3.67294E-01-1.64182E-01
 -1      1220 4.50329E-01 4.54073E-01-1.63868E-01
 -1      1221 3.81968E-01 3.75905E-01-1.62668E-01
 -1      1222 3.17013E-01 2.98118E-01-1.57214E-01
 -1      1223 2.53907E-01 2.21866E-01-1.45530E-01
 -1      1224 2.40348E-01 2.10882E-01-1.44467E-01
 -1      1225 1.86686E-01 1.15538E-01-1.06584E-01
 -1      1226 2.10751E-01 1.44244E-01-1.13048E-01
 -1      1227 1.65061E-01 9.78459E-02-1.02450E-01
 -1      1228 1.96732E-01 1.31023E-01-1.15561E-01
 -1      1229 2.26659E-01 1.69745E-01-1.28619E-01
 -1      1230 2.73149E-01 2.13565E-01-1.36143E-01
 -1      1231 3.10688E-01 2.53980E-01-1.40295E-01
 -1      1232 3.36103E-01 2.87731E-01-1.42723E-01
 -1      1233 2.62947E-01 2.01185E-01-1.28409E-01
 -1      1234 7.27095E-01 7.55987E-01-1.52237E-01
 -1      1235 7.81263E-01 8.13958E-01-1.39734E-01
 -1      1236 6.62579E-01 6.90479E-01-1.61107E-01
 -1      1237 6.18169E-01 6.33339E-01-1.64335E-01
 -1      1238 5.45953E-01 5.43730E-01-1.63879E-01
 -1      1239 6.16507E-01 6.22803E-01-1.62557E-01
 -1      1240 6.82234E-01 7.00352E-01-1.57929E-01
 -1      1241 7.46298E-01 7.77125E-01-1.45572E-01
 -1      1242 7.60219E-01 7.89453E-01-1.44873E-01
 -1      1243 2.63726E-01 2.16499E-01-1.41604E-01
 -1      1244 2.74173E-01 2.38296E-01-1.47263E-01
 -1      1245 5.06965E-01 5.26271E-01-1.61043E-01
 -1      1246 5.78146E-01 6.12301E-01-1.55204E-01
 -1      1247 7.16098E-01 7.61368E-01-1.45289E-01
 -1      1248 7.20395E-01 7.56854E-01-1.48298E-01
 -1      1249 4.91052E-01 4.72271E-01-1.60812E-01
 -1      1250 4.12779E-01 3.77644E-01-1.54553E-01
 -1      1251 4.99389E-01 4.99408E-01 3.95900E-04
 -1      1252 5.84005E-01 5.72929E-01-8.31137E-02
 -1      1253 3.30133E-01 3.45396E-01 5.33739E-02
 -1      1254 2.55506E-01 2.37425E-01-4.06524E-02
 -1      1255 3.89370E-01 4.05507E-01-5.05588E-02
 -1      1256 7.45555E-01 7.66124E-01-5.15376E-02
 -1      1257 6.72489E-01 6.58525E-01 5.56098E-02
 -1      1258 3.43807E-01 3.22434E-01 6.06163E-02
 -1      1259 7.75270E-01 8.00113E-01 3.35018E-02
 -1      1260 2.86611E-01 2.60735E-01-7.03201E-02
 -1      1261 7.77747E-01 7.70073E-01-2.26436E-02
 -1      1262 5.20514E-01 5.25969E-01 8.43185E-02
 -1      1263 5.39595E-01 5.38139E-01-8.58053E-02
 -1      1264 4.42418E-01 4.22175E-01-1.04482E-02
 -1      1265 1.99857E-01 1.94596E-01 1.11879E-02
 -1      1266 5.61676E-01 5.81786E-01-8.93874E-03
 -1      1267 1.63735E-01 1.31969E-01 6.28179E-02
 -1      1268 2.47654E-01 2.54267E-01 8.54247E-02
 -1      1269 8.64312E-01 8.94221E-01 5.52977E-02
 -1      1270 7.30862E-01 7.12716E-01-5.31271E-03
 -1      1271 7.76928E-01 7.69918E-01 7.52354E-02
 -1      1272 2.48756E-01 2.58381E-01-7.33486E-02
 -1      1273 8.65924E-01 8.97350E-01-5.31614E-02
 -1      1274 2.32160E-01 2.49638E-01 1.87691E-04
 -1      1275 8.13058E-01 8.13205E-01 3.04455E-02
 -1      1276 5.60566E-01 5.74875E-01-9.76828E-02
 -1      1277 1.74269E-01 1.71396E-01-3.46703E-02
 -1      1278 1.68677E-01 1.41931E-01 5.64387E-03
 -1      1279 1.98664E-01 1.92057E-01 7.27715E-02
 -1      1280 5.90906E-01 6.09568E-01 8.76599E-02
 -1      1281 1.02286E-01 7.86862E-02-3.19125E-02
 -1      1282 7.93244E-01 7.84625E-01-6.98554E-02
 -1      1283 8.11694E-01 8.18387E-01-7.31816E-02
 -1      1284 8.50605E-01 8.68742E-01-3.58364E-03
 -1      1285 7.20920E-02 4.04437E-02-4.28082E-02
 -1      1286 4.47921E-01 4.34756E-01 9.17015E-02
 -1      1287 3.22582E-01 3.22247E-01-9.79801E-02
 -1      1288 7.14423E-01 7.17759E-01 9.03624E-02
 -1      1289 8.36784E-01 8.42230E-01-7.72171E-02
 -1      1290 7.80370E-01 8.02873E-01-2.55938E-03
 -1      1291 8.29195E-01 8.50714E-01 6.30896E-02
 -1      1292 1.25199E-01 1.08474E-01 3.07877E-02
 -1      1293 5.81357E-02 2.99134E-02 3.70483E-02
 -1      1294 1.56446E-01 1.53825E-01 7.59173E-02
 -1      1295 2.87456E-01 3.00740E-01 7.06661E-02
 -1      1296 1.08647E-01 1.16631E-01 4.09493E-02
 -1      1297 1.52932E-01 1.63971E-01 3.86882E-02
 -1      1298 2.57815E-01 2.64480E-01 6.63668E-02
 -1      1299 9.66013E-02 1.00642E-01 3.83132E-02
 -1      1300 2.15774E-01 2.21134E-01 7.89387E-02
 -1      1301 2.71205E-01 2.80911E-01-4.40565E-02
 -1      1302 2.01933E-01 2.10924E-01-5.26682E-02
 -1      1303 3.19286E-01 3.33226E-01-6.40411E-02
 -1      1304 3.52300E-01 3.62844E-01-7.48568E-02
 -1      1305 2.83089E-01 2.91668E-01-8.70163E-02
 -1      1306 2.44461E-01 2.44461E-01-6.37682E-02
 -1      1307 3.54593E-01 3.53868E-01 1.30663E-01
 -1      1308 3.90873E-01 3.99336E-01 1.10225E-01
 -1      1309 4.63647E-01 4.78778E-01 7.48561E-02
 -1      1310 5.17579E-01 5.32417E-01 1.27197E-01
 -1      1311 4.27541E-01 4.35629E-01 9.70353E-02
 -1      1312 1.06904E-01 1.11998E-01-4.87066E-02
 -1      1313 8.40066E-02 8.56870E-02-3.18009E-02
 -1      1314 1.52292E-01 1.52019E-01-7.04949E-02
 -1      1315 4.22083E-01 4.09526E-01 3.24484E-02
 -1      1316 5.04759E-01 4.87313E-01 6.31360E-02
 -1      1317 5.88724E-01 5.77799E-01 2.97574E-02
 -1      1318 5.10344E-01 5.12913E-01 4.19021E-02
 -1      1319 5.98706E-01 5.91303E-01 7.07946E-02
 -1      1320 4.34160E-01 4.22628E-01 7.43038E-02
 -1      1321 8.52455E-01 8.45453E-01 5.21950E-02
 -1      1322 8.48824E-01 8.37860E-01 3.99277E-02
 -1      1323 9.02656E-01 8.95117E-01 3.64543E-02
 -1      1324 7.26077E-01 7.12774E-01 6.77530E-02
 -1      1325 9.05914E-01 9.01066E-01 4.64614E-02
 -1      1326 5.24264E-01 5.20780E-01 6.54268E-03
 -1      1327 4.45977E-01 4.64543E-01 2.40156E-02
 -1      1328 3.92619E-01 3.99704E-01 3.71981E-02
 -1      1329 3.53957E-01 3.55571E-01 9.67770E-03
 -1      1330 2.80154E-01 2.98660E-01 2.43132E-02
 -1      1331 4.00970E-01 4.19332E-01-4.11318E-03
 -1      1332 5.57963E-01 5.39494E-01 2.43482E-02
 -1      1333 4.77196E-01 4.61347E-01-4.95817E-03
 -1      1334 3.93004E-01 3.71483E-01 2.65241E-02
 -1      1335 3.60867E-01 3.51079E-01 1.30774E-01
 -1      1336 5.25280E-01 5.30716E-01 1.27292E-01
 -1      1337 1.42929E-01 1.50851E-01 3.07360E-02
 -1      1338 9.08494E-02 9.21578E-02 3.05300E-02
 -1      1339 7.35976E-02 6.74556E-02-5.62283E-02
 -1      1340 1.97944E-01 1.95507E-01-9.91207E-02
 -1      1341 2.42137E-01 2.31329E-01-1.17065E-01
 -1      1342 5.37256E-01 5.34218E-01 5.79400E-02
 -1      1343 5.93464E-01 5.86762E-01 3.92525E-02
 -1      1344 4.11084E-01 4.15619E-01 2.22752E-02
 -1      1345 4.62406E-01 4.66234E-01 6.25101E-03
 -1      1346 6.56607E-01 6.56326E-01 2.97663E-02
 -1      1347 7.03221E-01 6.84585E-01 2.31633E-02
 -1      1348 6.38107E-01 6.33371E-01 6.36977E-02
 -1      1349 6.74323E-01 6.84848E-01 7.59103E-02
 -1      1350 7.56350E-01 7.40440E-01 3.55158E-02
 -1      1351 1.05254E-01 1.08945E-01 5.21359E-02
 -1      1352 9.55102E-02 9.50613E-02 4.78457E-02
 -1      1353 4.06905E-01 4.23159E-01 7.42945E-02
 -1      1354 4.45982E-01 4.27678E-01 4.02151E-02
 -1      1355 5.60716E-01 5.46016E-01 7.65273E-02
 -1      1356 1.05987E-01 1.16563E-01 1.58238E-02
 -1      1357 2.36154E-01 2.52469E-01 3.91873E-02
 -1      1358 5.16708E-02 4.27448E-02-1.66733E-02
 -1      1359 5.11074E-02 3.96322E-02-2.33385E-02
 -1      1360 4.67143E-02 3.37580E-02-1.68978E-02
 -1      1361 4.75838E-01 4.94446E-01-3.04882E-02
 -1      1362 5.21958E-01 5.17975E-01-1.84342E-02
 -1      1363 4.24433E-01 4.27535E-01-3.79324E-02
 -1      1364 3.10846E-01 3.28775E-01-2.31205E-02
 -1      1365 3.50380E-01 3.52126E-01-1.21984E-02
 -1      1366 9.32654E-01 9.76892E-01 4.94926E-02
 -1      1367 9.61775E-01 9.96778E-01 3.21173E-02
 -1      1368 9.52078E-01 9.86389E-01 3.70780E-02
 -1      1369 9.79392E-01 9.99163E-01 1.83300E-02
 -1      1370 9.86126E-01 1.00125E+00 1.32398E-02
 -1      1371 2.15638E-01 2.05200E-01-3.83042E-02
 -1      1372 3.30622E-01 3.29252E-01-2.38285E-02
 -1      1373 3.74233E-01 3.64066E-01-2.41627E-02
 -1      1374 2.88185E-01 2.80025E-01-6.77843E-02
 -1      1375 4.07934E-01 4.10885E-01-5.12352E-02
 -1      1376 3.24619E-01 3.06100E-01 2.42353E-03
 -1      1377 2.28029E-01 2.16436E-01-1.33266E-02
 -1      1378 3.49190E-01 3.27526E-01-2.82422E-02
 -1      1379 2.95331E-01 2.72668E-01-6.36998E-04
 -1      1380 2.12280E-01 1.87967E-01-1.49383E-02
 -1      1381 1.89551E-01 1.69378E-01 8.36867E-03
 -1      1382 9.10524E-01 9.07583E-01 3.18739E-02
 -1      1383 7.48372E-01 7.40378E-01 4.30468E-02
 -1      1384 8.64145E-01 8.64692E-01 6.29033E-02
 -1      1385 6.97097E-01 6.89229E-01 7.32662E-02
 -1      1386 7.65506E-01 7.66200E-01 5.77822E-02
 -1      1387 3.44622E-01 3.41587E-01 7.59577E-03
 -1      1388 4.60938E-01 4.64173E-01 5.35157E-02
 -1      1389 5.87192E-01 5.82549E-01 2.00580E-02
 -1      1390 2.68222E-01 2.27258E-01 1.08272E-01
 -1      1391 2.48426E-01 2.21640E-01 6.60687E-02
 -1      1392 3.57818E-01 3.30523E-01 1.06739E-01
 -1      1393 4.09247E-01 3.86458E-01 1.23152E-01
 -1      1394 3.98586E-01 3.77537E-01 7.61563E-02
 -1      1395 2.96421E-01 2.71974E-01 8.34240E-02
 -1      1396 5.25131E-01 5.40531E-01-4.47095E-03
 -1      1397 4.12941E-01 4.23684E-01 2.85958E-02
 -1      1398 3.63978E-01 3.78234E-01-1.74044E-04
 -1      1399 4.41214E-01 4.53770E-01-2.56843E-02
 -1      1400 7.38627E-01 7.31565E-01 1.40562E-02
 -1      1401 7.58512E-01 7.60023E-01 5.03588E-02
 -1      1402 2.26430E-01 1.87278E-01 9.88405E-02
 -1      1403 3.58028E-01 3.40555E-01 1.18361E-01
 -1      1404 7.39699E-01 7.55865E-01-5.17957E-02
 -1      1405 6.54910E-01 6.76954E-01-3.35359E-02
 -1      1406 6.68543E-01 6.66043E-01-3.27960E-02
 -1      1407 6.70771E-01 6.61705E-01-7.52116E-02
 -1      1408 5.60506E-01 5.78916E-01-5.30748E-02
 -1      1409 6.50958E-01 6.74625E-01-7.52630E-02
 -1      1410 7.58552E-01 7.43418E-01-1.43279E-02
 -1      1411 6.57910E-01 6.41452E-01-4.13960E-02
 -1      1412 6.89586E-01 6.74686E-01-5.16902E-02
 -1      1413 7.89311E-01 7.76663E-01-4.60133E-02
 -1      1414 6.87276E-01 6.77535E-01-8.19355E-02
 -1      1415 7.63485E-01 7.47721E-01-3.89544E-02
 -1      1416 5.83663E-01 5.77963E-01-3.48690E-02
 -1      1417 4.89912E-01 4.89371E-01-5.68082E-02
 -1      1418 5.87154E-01 5.73163E-01-7.99645E-02
 -1      1419 4.76189E-01 4.91158E-01-7.59800E-02
 -1      1420 4.43442E-01 4.35381E-01 1.24022E-01
 -1      1421 3.59094E-01 3.35304E-01 1.07930E-01
 -1      1422 2.89908E-01 2.67055E-01 1.17448E-01
 -1      1423 2.73384E-01 2.57831E-01 6.97468E-02
 -1      1424 3.55289E-01 3.52799E-01 8.67860E-02
 -1      1425 2.58370E-01 2.65995E-01 2.99973E-02
 -1      1426 2.10798E-01 2.21234E-01 5.88544E-03
 -1      1427 7.62359E-02 7.12950E-02-2.98259E-02
 -1      1428 7.69559E-02 7.39216E-02-1.99993E-02
 -1      1429 1.38295E-01 1.23167E-01-3.44337E-02
 -1      1430 6.59452E-01 6.55138E-01-5.37377E-02
 -1      1431 5.67662E-01 5.55378E-01-8.45586E-02
 -1      1432 5.13096E-01 4.96156E-01-4.67576E-02
 -1      1433 4.96891E-01 4.80722E-01-4.78466E-02
 -1      1434 6.16987E-01 6.00130E-01-1.91925E-02
 -1      1435 1.08102E-01 1.10046E-01-1.54553E-02
 -1      1436 1.21183E-01 1.28902E-01-3.15052E-02
 -1      1437 2.53413E-01 2.54520E-01-5.00060E-02
 -1      1438 2.42105E-01 2.48621E-01-1.58324E-02
 -1      1439 2.38703E-01 2.55167E-01-3.40622E-02
 -1      1440 1.14248E-01 1.24904E-01-9.46589E-03
 -1      1441 4.13560E-01 3.95563E-01-8.24434E-02
 -1      1442 4.28367E-01 4.11304E-01-8.16164E-02
 -1      1443 3.60590E-01 3.39389E-01-4.35208E-02
 -1      1444 6.04699E-01 5.94732E-01 6.94799E-02
 -1      1445 5.76721E-01 5.96595E-01 3.95054E-02
 -1      1446 6.25991E-01 6.38443E-01-3.02776E-02
 -1      1447 6.86631E-01 6.97210E-01-2.41784E-03
 -1      1448 7.10935E-01 7.33872E-01-6.19994E-03
 -1      1449 7.99758E-01 8.19788E-01-2.43101E-02
 -1      1450 8.14581E-01 8.10555E-01-5.32320E-02
 -1      1451 8.94812E-01 8.87523E-01-3.61742E-02
 -1      1452 9.26817E-01 9.26958E-01-1.87554E-02
 -1      1453 8.27959E-01 8.33783E-01-5.39726E-02
 -1      1454 9.24059E-01 9.20702E-01-3.04502E-02
 -1      1455 8.16175E-01 8.13192E-01-7.50027E-02
 -1      1456 8.60217E-02 7.70225E-02-1.72613E-03
 -1      1457 8.65704E-02 7.90553E-02 7.46277E-03
 -1      1458 8.13226E-02 6.34210E-02 5.48674E-03
 -1      1459 7.99577E-02 6.11032E-02-2.85038E-03
 -1      1460 5.19851E-01 5.19069E-01-4.25040E-02
 -1      1461 3.94554E-01 3.83016E-01-6.60387E-02
 -1      1462 4.30056E-01 4.29596E-01-9.47513E-02
 -1      1463 4.40527E-01 4.54333E-01-8.77687E-02
 -1      1464 5.01846E-01 4.92766E-01-1.24023E-01
 -1      1465 3.64899E-01 3.78203E-01-1.21617E-01
 -1      1466 2.99329E-01 3.01131E-01-7.85181E-02
 -1      1467 3.59355E-01 3.34372E-01-1.13698E-01
 -1      1468 8.08614E-01 8.36082E-01-5.55290E-02
 -1      1469 8.17036E-01 8.61344E-01-8.79627E-02
 -1      1470 7.60392E-01 7.93349E-01-8.93086E-02
 -1      1471 6.70151E-01 7.03827E-01-1.17359E-01
 -1      1472 7.25163E-01 7.51003E-01-8.26792E-02
 -1      1473 5.36372E-01 5.49825E-01 1.23880E-01
 -1      1474 4.79298E-01 4.90653E-01 1.24521E-01
 -1      1475 5.50326E-01 5.67780E-01 8.66399E-02
 -1      1476 5.68883E-01 5.91579E-01 1.24514E-01
 -1      1477 7.77053E-01 7.79161E-01-1.08778E-01
 -1      1478 7.95607E-01 8.34874E-01-9.26165E-02
 -1      1479 8.36477E-01 8.49688E-01-7.06579E-02
 -1      1480 6.95441E-01 6.90717E-01-9.61892E-02
 -1      1481 6.49805E-01 6.71456E-01-1.20079E-01
 -1      1482 4.01054E-01 3.80570E-01-9.93965E-02
 -1      1483 3.61213E-01 3.53541E-01-1.24453E-01
 -1      1484 5.17020E-01 4.71768E-01-1.42961E-01
 -1      1485 5.54726E-01 5.36590E-01-1.07610E-01
 -1      1486 5.10049E-01 5.12393E-01-1.32422E-01
 -1      1487 4.12376E-01 4.19879E-01-9.40844E-02
 -1      1488 6.40891E-01 6.36448E-01-1.38599E-02
 -1      1489 7.29632E-01 7.16130E-01 1.28563E-02
 -1      1490 5.44402E-01 5.59349E-01-4.67372E-02
 -1      1491 4.61035E-01 4.71993E-01-6.89986E-02
 -1      1492 5.40708E-01 5.56445E-01-9.21360E-02
 -1      1493 6.72952E-01 6.95605E-01 1.61335E-02
 -1      1494 6.41231E-01 6.57426E-01 2.12263E-02
 -1      1495 8.13039E-01 8.35251E-01 1.26937E-02
 -1      1496 2.73077E-01 2.58017E-01 3.42041E-02
 -1      1497 2.52130E-01 2.27338E-01 2.92783E-02
 -1      1498 6.08803E-01 6.09081E-01 7.17170E-03
 -1      1499 8.20056E-01 8.24665E-01-5.70028E-02
 -1      1500 8.76256E-01 8.92507E-01-4.90011E-02
 -1      1501 9.38411E-01 9.55920E-01-4.41869E-02
 -1      1502 9.32303E-01 9.50215E-01-3.40492E-02
 -1      1503 8.60744E-01 8.98096E-01-7.57686E-02
 -1      1504 8.36740E-01 8.62322E-01-8.91383E-02
 -1      1505 8.35201E-01 8.57502E-01-6.34956E-02
 -1      1506 9.17764E-01 9.25338E-01-4.21155E-02
 -1      1507 3.35695E-01 3.28161E-01-7.36290E-02
 -1      1508 4.34793E-01 4.19886E-01-7.45372E-02
 -1      1509 2.79223E-01 2.73648E-01 1.23361E-01
 -1      1510 9.83525E-01 9.97606E-01 1.28934E-02
 -1      1511 9.53159E-01 9.78985E-01 3.29658E-02
 -1      1512 4.94442E-01 4.80295E-01 8.85243E-02
 -1      1513 2.72884E-01 2.49176E-01-5.55738E-02
 -1      1514 3.64274E-01 3.57372E-01-5.27169E-02
 -1      1515 5.37103E-01 5.53502E-01 3.69051E-02
 -1      1516 4.25137E-01 4.36291E-01 7.02883E-02
 -1      1517 5.83165E-01 5.65555E-01-8.45406E-03
 -1      1518 9.10650E-01 9.33300E-01 1.74593E-02
 -1      1519 8.72533E-01 8.95435E-01 2.38002E-02
 -1      1520 9.73130E-01 9.88692E-01 8.36658E-03
 -1      1521 9.09898E-01 9.34741E-01 8.26005E-03
 -1      1522 8.82254E-01 8.96196E-01 1.13392E-02
 -1      1523 7.76367E-01 8.01434E-01 1.52408E-02
 -1      1524 4.39203E-01 4.40793E-01 1.24347E-01
 -1      1525 5.66382E-02 4.75930E-02 1.10086E-02
 -1      1526 1.60967E-01 1.49235E-01 2.32190E-02
 -1      1527 1.49481E-01 1.25846E-01 1.98772E-02
 -1      1528 9.16189E-01 9.33217E-01 3.17295E-02
 -1      1529 9.43358E-01 9.64354E-01 2.01628E-02
 -1      1530 8.21834E-01 8.49636E-01 4.70599E-02
 -1      1531 9.72817E-01 9.88774E-01-8.33510E-03
 -1      1532 9.13969E-01 9.34280E-01-3.10251E-02
 -1      1533 9.44773E-01 9.64330E-01-1.89414E-02
 -1      1534 9.09312E-01 9.34103E-01-9.90037E-03
 -1      1535 8.26822E-01 8.53249E-01-3.28041E-02
 -1      1536 8.82342E-01 8.95953E-01-1.36372E-02
 -1      1537 6.55456E-02 4.38971E-02 2.20519E-02
 -1      1538 1.64246E-01 1.37302E-01 3.37979E-02
 -1      1539 6.96701E-02 4.72347E-02 8.51768E-03
 -1      1540 5.04038E-02 3.66597E-02 1.24875E-02
 -1      1541 1.45572E-01 1.20963E-01 4.60013E-02
 -1      1542 7.59575E-01 7.66107E-01-3.67114E-02
 -1      1543 9.03474E-01 9.04297E-01-1.89676E-02
 -1      1544 8.84147E-01 8.96760E-01-3.01190E-02
 -1      1545 9.30566E-01 9.37979E-01-1.02191E-02
 -1      1546 8.14997E-01 8.20903E-01-1.21090E-02
 -1      1547 6.50070E-01 6.69054E-01 5.93203E-02
 -1      1548 6.85216E-01 7.09006E-01 5.99457E-02
 -1      1549 1.86835E-01 1.82744E-01-1.24132E-02
 -1      1550 6.70386E-01 6.74320E-01 5.85285E-02
 -1      1551 6.62089E-01 6.62166E-01 2.06602E-02
 -1      1552 3.55575E-01 3.53836E-01 4.68865E-02
 -1      1553 2.77080E-01 2.74498E-01-1.17123E-01
 -1      1554 4.29810E-01 4.34309E-01-1.32772E-01
 -1      1555 9.02320E-01 9.22646E-01 2.44190E-02
 -1      1556 9.35811E-01 9.55435E-01 2.63594E-02
 -1      1557 9.36742E-02 9.48263E-02 1.34879E-02
 -1      1558 1.97964E-01 1.93442E-01 4.05569E-02
 -1      1559 3.36868E-01 3.38388E-01 1.86405E-02
 -1      1560 3.02629E-01 2.91394E-01 5.13599E-02
 -1      1561 3.33339E-01 3.45183E-01 6.74107E-02
 -1      1562 5.95654E-01 6.10313E-01 1.21861E-01
 -1      1563 6.86185E-01 7.05682E-01 1.23105E-01
 -1      1564 6.18176E-01 6.22707E-01 8.98188E-02
 -1      1565 6.82328E-01 6.98573E-01 8.16834E-02
 -1      1566 7.73765E-01 7.87267E-01 7.78798E-02
 -1      1567 7.45272E-01 7.76377E-01 1.09090E-01
 -1      1568 5.75514E-01 5.71545E-01 1.29598E-01
 -1      1569 6.89108E-01 6.83303E-01 1.05550E-01
 -1      1570 7.08317E-01 7.13906E-01 1.24048E-01
 -1      1571 5.90369E-01 5.79540E-01 9.67888E-02
 -1      1572 4.79279E-01 5.24515E-01-1.42818E-01
 -1      1573 4.06400E-01 4.44835E-01-1.27915E-01
 -1      1574 5.61415E-01 5.62362E-01-1.25098E-01
 -1      1575 5.17711E-01 5.33696E-01-9.96899E-02
 -1      1576 1.00183E-01 8.96988E-02-6.91619E-02
 -1      1577 2.65315E-01 2.46721E-01-1.19787E-01
 -1      1578 8.91994E-01 9.10435E-01-3.16096E-02
 -1      1579 9.35577E-01 9.47323E-01-1.17391E-02
 -1      1580 6.61707E-01 6.59425E-01 2.22860E-02
 -1      1581 6.76911E-01 6.71691E-01 6.80291E-02
 -1      1582 5.20851E-01 4.75639E-01 1.42680E-01
 -1      1583 4.01813E-01 3.80826E-01 1.05570E-01
 -1      1584 5.71653E-01 5.57325E-01 1.01948E-01
 -1      1585 6.23443E-01 6.51085E-01 1.20829E-01
 -1      1586 7.09641E-01 7.36681E-01 8.03920E-02
 -1      1587 2.51666E-01 2.51899E-01 5.52725E-02
 -1      1588 1.19319E-01 1.27379E-01 3.41337E-02
 -1      1589 1.07948E-01 1.09303E-01 1.55975E-02
 -1      1590 2.42065E-01 2.49181E-01 1.58303E-02
 -1      1591 1.14136E-01 1.24923E-01 9.69538E-03
 -1      1592 5.00224E-01 5.18298E-01 8.50289E-02
 -1      1593 8.26848E-01 8.44827E-01 4.02910E-02
 -1      1594 8.77353E-01 8.88978E-01 5.05401E-02
 -1      1595 9.17985E-01 9.21867E-01-3.09607E-02
 -1      1596 7.76858E-01 7.90816E-01-6.39081E-02
 -1      1597 7.96316E-01 7.94623E-01-4.79736E-02
 -1      1598 7.11481E-01 7.03816E-01-8.37911E-02
 -1      1599 8.08561E-01 8.02703E-01-7.23329E-02
 -1      1600 9.87937E-02 7.72187E-02 3.45804E-02
 -1      1601 2.72360E-02 1.08168E-02 8.36189E-03
 -1      1602 9.98592E-02 8.12108E-02 1.34218E-02
 -1      1603 7.96067E-01 7.91888E-01 5.28116E-03
 -1      1604 7.78946E-01 7.74006E-01-2.65069E-02
 -1      1605 7.59734E-01 7.84706E-01-2.52781E-02
 -1      1606 6.76961E-01 6.97384E-01-5.50190E-03
 -1      1607 7.89781E-01 8.04550E-01 3.20407E-02
 -1      1608 3.11204E-01 3.06970E-01-1.27966E-01
 -1      1609 3.62012E-01 3.66862E-01 6.17145E-02
 -1      1610 2.01363E-01 1.99351E-01 2.31812E-02
 -1      1611 1.39878E-01 1.21970E-01 5.28549E-02
 -1      1612 2.28811E-01 2.10150E-01 5.43288E-02
 -1      1613 1.38629E-01 1.26765E-01 2.56569E-02
 -1      1614 9.00234E-01 9.18219E-01 1.39444E-02
 -1      1615 6.04356E-01 5.98456E-01 9.45447E-02
 -1      1616 3.77897E-02 1.79824E-02-3.04224E-02
 -1      1617 3.78184E-02 2.37155E-02-2.93001E-02
 -1      1618 4.80130E-02 3.34757E-02-2.49093E-02
 -1      1619 8.83261E-02 6.13759E-02-4.83147E-02
 -1      1620 8.91688E-01 8.88983E-01 1.36999E-02
 -1      1621 8.67577E-01 8.56725E-01 8.98886E-03
 -1      1622 8.92844E-01 8.84827E-01 2.95402E-02
 -1      1623 5.30233E-01 5.25890E-01 1.24821E-01
 -1      1624 5.22369E-01 5.26044E-01 1.25118E-01
 -1      1625 6.43081E-01 6.55821E-01-7.04766E-02
 -1      1626 4.95382E-01 4.81106E-01 1.28476E-01
 -1      1627 6.22532E-01 6.24516E-01 1.31010E-01
 -1      1628 8.67201E-01 8.56540E-01-1.24634E-02
 -1      1629 8.77884E-01 8.66779E-01-1.90069E-02
 -1      1630 8.99621E-01 8.92192E-01-2.74288E-02
 -1      1631 9.07633E-01 9.01179E-01-3.40096E-02
 -1      1632 9.34168E-01 9.44787E-01-4.68627E-03
 -1      1633 9.39648E-01 9.55033E-01-6.75143E-03
 -1      1634 9.36104E-01 9.31940E-01-1.19379E-02
 -1      1635 3.88151E-02 2.00781E-02-2.61638E-02
 -1      1636 8.62426E-02 5.94345E-02-3.80219E-02
 -1      1637 8.17612E-02 4.19312E-02-5.60930E-02
 -1      1638 7.34609E-01 7.40221E-01 1.18463E-01
 -1      1639 7.38848E-01 7.32279E-01-1.98236E-02
 -1      1640 8.91858E-01 8.87951E-01-1.41729E-02
 -1      1641 7.71145E-01 7.69402E-01-4.89878E-02
 -1      1642 5.03437E-01 5.18217E-01-1.31943E-01
 -1      1643 4.35134E-01 4.46769E-01-1.02606E-01
 -1      1644 3.90659E-01 3.90368E-01-1.33272E-01
 -1      1645 8.42438E-01 8.47716E-01-2.64650E-02
 -1      1646 7.08061E-01 7.32962E-01-1.00099E-01
 -1      1647 6.07621E-01 6.20221E-01-1.22365E-01
 -1      1648 7.37077E-01 7.61061E-01-1.15293E-01
 -1      1649 6.78838E-01 6.83289E-01-8.68014E-02
 -1      1650 5.81723E-01 5.91257E-01-7.76655E-02
 -1      1651 6.19095E-01 6.38336E-01-1.00561E-01
 -1      1652 6.90955E-01 6.96795E-01-7.28963E-02
 -1      1653 7.37080E-02 6.73889E-02 5.62181E-02
 -1      1654 1.99647E-01 1.94422E-01 1.06327E-01
 -1      1655 1.79316E-01 1.68763E-01 9.66987E-02
 -1      1656 8.21695E-01 8.24560E-01-1.10395E-02
 -1      1657 8.10673E-01 8.36149E-01-3.02837E-03
 -1      1658 3.45374E-01 3.49485E-01 1.06951E-01
 -1      1659 2.82270E-01 2.69784E-01 1.19416E-01
 -1      1660 5.51480E-01 5.58062E-01-5.39691E-02
 -1      1661 4.86653E-01 4.97686E-01-7.28081E-02
 -1      1662 4.78478E-01 4.81947E-01-1.86875E-02
 -1      1663 4.18575E-01 4.23443E-01-3.53439E-02
 -1      1664 6.72297E-01 7.05337E-01 1.13730E-01
 -1      1665 7.85122E-01 8.23863E-01 9.82099E-02
 -1      1666 1.81408E-01 1.66457E-01 7.52004E-02
 -1      1667 2.27216E-01 2.27430E-01 1.09930E-01
 -1      1668 3.05366E-01 3.13960E-01 9.37949E-02
 -1      1669 9.27435E-01 9.41768E-01 2.85003E-02
 -1      1670 9.26538E-01 9.38259E-01 1.94236E-02
 -1      1671 8.01861E-01 8.25179E-01 4.93928E-02
 -1      1672 8.43141E-01 8.72251E-01 5.97510E-02
 -1      1673 5.62827E-01 5.54490E-01-1.25048E-01
 -1      1674 6.36058E-01 6.32533E-01-1.21815E-01
 -1      1675 6.09410E-01 6.12854E-01-1.23592E-01
 -1      1676 5.43587E-01 5.36048E-01-1.25729E-01
 -1      1677 1.98722E-01 1.54578E-01 9.41048E-02
 -1      1678 6.59318E-01 6.67828E-01-1.24989E-01
 -1      1679 6.26180E-01 6.25703E-01-1.51228E-02
 -1      1680 9.77864E-01 9.91124E-01 1.09244E-02
 -1      1681 9.87034E-01 9.98915E-01 8.12221E-03
 -1      1682 9.32163E-01 9.53049E-01 3.30709E-02
 -1      1683 9.46900E-01 9.69084E-01 2.45234E-02
 -1      1684 2.80784E-01 2.87716E-01-2.85792E-04
 -1      1685 7.38792E-01 7.64266E-01 7.76464E-02
 -1      1686 8.04177E-01 8.47915E-01 9.12853E-02
 -1      1687 6.29689E-01 6.17293E-01-9.22137E-02
 -1      1688 6.19802E-02 4.38507E-02-4.40730E-02
 -1      1689 1.17022E-01 8.88807E-02-6.05820E-02
 -1      1690 9.14769E-01 9.15435E-01 2.69671E-02
 -1      1691 8.71345E-01 8.74801E-01 5.43869E-02
 -1      1692 3.74798E-01 3.77361E-01-5.88142E-03
 -1      1693 7.41453E-01 7.56349E-01-1.17391E-01
 -1      1694 9.08022E-02 8.97028E-02 2.71684E-03
 -1      1695 7.87909E-02 7.84546E-02-9.09607E-03
 -1      1696 7.43554E-02 6.80707E-02-1.30054E-02
 -1      1697 9.66057E-01 9.86253E-01 2.22682E-02
 -1      1698 9.16499E-01 9.51760E-01 5.70628E-02
 -1      1699 6.92345E-01 7.03765E-01 1.24879E-01
 -1      1700 6.25768E-01 6.23165E-01-5.24152E-03
 -1      1701 2.12725E-01 2.04371E-01-4.23846E-02
 -1      1702 1.95166E-01 1.82696E-01-5.81444E-02
 -1      1703 1.29830E-01 1.11975E-01-2.87548E-02
 -1      1704 1.16381E-01 9.45694E-02-3.92721E-02
 -1      1705 1.88744E-01 1.60395E-01-5.30552E-02
 -1      1706 9.37572E-01 9.51601E-01-4.84034E-04
 -1      1707 9.04164E-01 9.29750E-01-7.51639E-04
 -1      1708 9.13813E-01 9.11644E-01 1.93436E-02
 -1      1709 5.64816E-01 5.40906E-01-1.38880E-01
 -1      1710 5.66303E-01 5.81585E-01-1.28433E-01
 -1      1711 1.55947E-01 1.46356E-01-6.04043E-03
 -1      1712 2.24033E-01 1.98197E-01-2.74081E-02
 -1      1713 1.34269E-01 1.08216E-01-1.70095E-02
 -1      1714 7.39951E-02 5.19207E-02 1.57902E-03
 -1      1715 8.82784E-01 8.71569E-01-7.61171E-03
 -1      1716 5.17503E-01 5.17693E-01-1.26008E-01
 -1      1717 4.58466E-01 4.42499E-01-1.24015E-01
 -1      1718 9.61237E-02 1.02655E-01-6.64969E-03
 -1      1719 1.10531E-01 1.20457E-01 5.70705E-05
 -1      1720 6.97113E-01 6.97260E-01-1.22310E-01
 -1      1721 5.78898E-01 6.02820E-01-1.27122E-01
 -1      1722 9.40541E-01 9.63983E-01 3.07302E-02
 -1      1723 3.10883E-01 2.93123E-01-8.43545E-02
 -1      1724 3.25377E-01 3.14736E-01-1.28096E-01
 -1      1725 3.02365E-01 3.00500E-01-1.21907E-01
 -1      1726 2.20933E-01 2.18113E-01-1.08205E-01
 -1      1727 2.36911E-01 2.28584E-01-7.88299E-02
 -1      1728 2.79651E-01 2.49517E-01-1.02956E-01
 -1      1729 1.50252E-01 1.11578E-01 8.11677E-02
 -1      1730 1.62251E-01 1.37927E-01 8.76564E-02
 -1      1731 1.85410E-01 1.63075E-01 6.81584E-02
 -1      1732 2.18701E-01 1.86759E-01 1.02232E-01
 -1      1733 1.38137E-01 1.45918E-01-1.47509E-05
 -1      1734 9.60337E-02 1.02518E-01 6.77120E-03
 -1      1735 6.10320E-01 6.33139E-01 1.02133E-01
 -1      1736 4.47152E-01 4.68098E-01 1.04010E-01
 -1      1737 7.43592E-01 7.46857E-01-1.15409E-01
 -1      1738 6.43420E-01 6.41454E-01-1.21759E-01
 -1      1739 7.59738E-01 7.67458E-01-1.14850E-01
 -1      1740 7.26057E-02 6.54771E-02-4.15638E-02
 -1      1741 5.71844E-02 5.74197E-02-3.05974E-02
 -1      1742 2.32894E-01 2.33948E-01 3.20531E-03
 -1      1743 6.37435E-01 6.22266E-01-1.21785E-01
 -1      1744 6.14626E-01 6.24125E-01 1.30562E-01
 -1      1745 1.02808E-01 1.12759E-01 4.96761E-03
 -1      1746 9.85504E-01 1.00088E+00-1.38215E-02
 -1      1747 9.82433E-01 9.97030E-01-1.35736E-02
 -1      1748 2.29329E-01 2.07859E-01 4.81448E-02
 -1      1749 6.52893E-01 6.63618E-01 1.27152E-01
 -1      1750 4.95958E-01 4.95710E-01 1.29625E-01
 -1      1751 9.29229E-01 9.35767E-01 4.12994E-02
 -1      1752 9.44853E-01 9.43270E-01 2.91829E-02
 -1      1753 1.58463E-01 1.48725E-01 1.05773E-02
 -1      1754 3.95103E-02 2.29123E-02 5.78529E-03
 -1      1755 1.19420E-01 1.03513E-01 2.50523E-03
 -1      1756 1.00796E-01 5.53756E-02-6.42116E-02
 -1      1757 1.49631E-01 9.90992E-02-8.30702E-02
 -1      1758 8.95887E-01 8.89113E-01-1.39342E-03
 -1      1759 8.95420E-01 8.87593E-01-1.22872E-02
 -1      1760 8.84283E-01 8.73007E-01 4.16852E-03
 -1      1761 8.71299E-02 8.38711E-02 3.03250E-02
 -1      1762 8.94445E-02 8.56973E-02 1.39682E-02
 -1      1763 5.90763E-02 5.28570E-02 1.61862E-02
 -1      1764 1.60301E-01 1.48408E-01 4.95375E-02
 -1      1765 1.21242E-01 7.70872E-02-7.33188E-02
 -1      1766 9.00826E-02 8.75444E-02 4.08366E-02
 -1      1767 4.64710E-02 2.80477E-02 1.24888E-04
 -1      1768 3.92389E-02 2.31533E-02-6.02790E-03
 -1      1769 6.94015E-02 4.69305E-02-5.57320E-03
 -1      1770 1.73956E-01 1.50831E-01-3.95377E-02
 -1      1771 6.42175E-01 6.33710E-01 8.81306E-02
 -1      1772 2.80852E-01 2.77867E-01-1.63170E-02
 -1      1773 3.33240E-01 3.35133E-01-3.37599E-02
 -1      1774 1.87883E-01 1.66959E-01-1.03621E-01
 -1      1775 1.96672E-01 1.78964E-01-7.83952E-02
 -1      1776 9.14804E-01 9.17202E-01-3.91037E-02
 -1      1777 7.48952E-01 7.67314E-01 1.15367E-01
 -1      1778 9.04922E-01 9.14372E-01 5.99262E-02
 -1      1779 9.18943E-01 9.26040E-01 3.59686E-02
 -1      1780 8.06263E-01 8.32330E-01 9.65284E-02
 -1      1781 6.89069E-02 7.26347E-02-1.40397E-02
 -1      1782 7.79789E-02 7.83338E-02-2.00503E-02
 -1      1783 2.14900E-01 2.16212E-01-5.63426E-02
 -1      1784 1.26366E-01 1.33634E-01-4.18890E-02
 -1      1785 9.01654E-01 8.99112E-01-6.39188E-03
 -1      1786 9.15298E-01 9.15230E-01 7.87186E-03
 -1      1787 9.10768E-01 9.06202E-01 1.32800E-02
 -1      1788 8.74913E-01 8.62874E-01-1.65019E-03
 -1      1789 8.99038E-01 8.94312E-01-1.99350E-02
 -1      1790 9.13625E-01 9.12712E-01-3.21779E-02
 -1      1791 9.22367E-01 9.30815E-01 2.58400E-02
 -1      1792 4.22036E-01 3.55512E-01 1.52050E-01
 -1      1793 4.60489E-01 4.09758E-01 1.53450E-01
 -1      1794 3.33868E-01 3.14372E-01 1.10611E-01
 -1      1795 3.10325E-01 2.95242E-01 1.25399E-01
 -1      1796 5.81627E-01 6.45883E-01 1.50023E-01
 -1      1797 5.43763E-01 5.93811E-01 1.52196E-01
 -1      1798 6.76348E-01 6.96041E-01 1.04727E-01
 -1      1799 7.03432E-01 7.17387E-01 1.21194E-01
 -1      1800 9.78670E-01 9.98738E-01-1.88641E-02
 -1      1801 9.48470E-01 9.84034E-01-3.91429E-02
 -1      1802 2.01477E-01 1.69774E-01-1.14373E-01
 -1      1803 1.61938E-01 1.30472E-01-9.20607E-02
 -1      1804 7.42761E-01 7.33986E-01-2.25582E-03
 -1      1805 6.10985E-02 5.27174E-02-4.84856E-02
 -1      1806 1.13734E-01 9.71607E-02-8.18591E-02
 -1      1807 2.60548E-01 2.58110E-01-6.13185E-02
 -1      1808 2.95514E-01 2.62414E-01-1.07574E-01
 -1      1809 3.35277E-01 3.03666E-01-1.11322E-01
 -1      1810 2.55497E-01 2.17997E-01-9.89829E-02
 -1      1811 5.01556E-02 4.38828E-02 4.32560E-02
 -1      1812 4.44642E-02 4.10959E-02 3.74468E-02
 -1      1813 1.74035E-01 1.68544E-01 9.88602E-02
 -1      1814 1.12447E-01 1.15847E-01 6.11898E-02
 -1      1815 8.33952E-01 8.35115E-01-9.63513E-02
 -1      1816 8.63449E-01 8.84365E-01-8.89912E-02
 -1      1817 8.72225E-01 8.95575E-01-6.55165E-02
 -1      1818 8.45701E-01 8.86282E-01-7.89619E-02
 -1      1819 4.85985E-01 5.31103E-01 1.42813E-01
 -1      1820 3.48179E-02 1.73227E-02 2.90518E-02
 -1      1821 5.93873E-02 3.54068E-02 4.61554E-02
 -1      1822 7.64385E-02 5.28818E-02 4.19758E-02
 -1      1823 1.19556E-01 8.13574E-02 6.86477E-02
 -1      1824 9.34507E-01 9.43289E-01 4.99568E-02
 -1      1825 9.47846E-01 9.50288E-01 3.97640E-02
 -1      1826 9.27994E-01 9.73095E-01-5.17723E-02
 -1      1827 9.60511E-01 9.95739E-01-3.30449E-02
 -1      1828 7.76905E-01 8.10285E-01 1.00308E-01
 -1      1829 8.39420E-01 8.69653E-01 9.27723E-02
 -1      1830 9.28463E-01 9.33271E-01-1.20350E-03
 -1      1831 9.08548E-01 9.29770E-01 4.82285E-02
 -1      1832 8.76611E-01 9.18556E-01 6.87465E-02
 -1      1833 9.68700E-02 1.01165E-01 8.23278E-03
 -1      1834 7.97625E-01 8.16482E-01-1.03657E-01
 -1      1835 9.18405E-01 9.30642E-01 6.51858E-02
 -1      1836 9.49689E-01 9.57672E-01 4.39037E-02
 -1      1837 8.12516E-01 8.17573E-01 9.92890E-02
 -1      1838 8.39338E-01 8.43387E-01 9.05757E-02
 -1      1839 8.99154E-01 8.95204E-01 5.33968E-02
 -1      1840 5.69036E-01 5.84468E-01-1.23557E-01
 -1      1841 8.02394E-02 7.84668E-02-2.71941E-02
 -1      1842 8.10977E-02 8.26716E-02-2.07961E-02
 -1      1843 9.01732E-01 8.95663E-01-4.36108E-02
 -1      1844 9.31870E-01 9.29875E-01-3.59026E-02
 -1      1845 8.21238E-01 8.31675E-01 4.71349E-02
 -1      1846 8.74540E-01 8.75732E-01 1.98565E-02
 -1      1847 9.25421E-01 9.24328E-01 1.66236E-02
 -1      1848 8.86931E-01 8.80650E-01 3.94762E-02
 -1      1849 8.03359E-01 8.02330E-01 5.59280E-02
 -1      1850 7.11028E-01 7.23528E-01-1.18131E-01
 -1      1851 9.39216E-01 9.47881E-01-4.09971E-02
 -1      1852 7.85845E-01 7.91739E-01-1.05134E-01
 -1      1853 7.18579E-01 7.50643E-01-1.29946E-01
 -1      1854 8.01570E-01 8.21433E-01-1.13066E-01
 -1      1855 4.21976E-01 3.54762E-01-1.51872E-01
 -1      1856 4.82403E-01 4.18698E-01-1.43701E-01
 -1      1857 3.10454E-01 2.97592E-01-1.19676E-01
 -1      1858 3.35403E-01 3.17802E-01-1.03601E-01
 -1      1859 9.64701E-01 9.83759E-01-2.89342E-02
 -1      1860 9.65635E-01 9.78532E-01-2.70872E-02
 -1      1861 9.36261E-01 9.57900E-01-3.61580E-02
 -1      1862 8.95146E-01 9.30376E-01-6.12739E-02
 -1      1863 5.67500E-02 4.82576E-02 3.92099E-02
 -1      1864 9.41860E-02 8.47778E-02 5.93859E-02
 -1      1865 2.06260E-01 1.87553E-01 1.03439E-01
 -1      1866 1.34460E-01 1.14938E-01 8.89267E-02
 -1      1867 1.63759E-01 1.64372E-01 9.63394E-02
 -1      1868 1.68801E-01 1.27763E-01 8.41157E-02
 -1      1869 1.44169E-01 1.18706E-01 7.07875E-02
 -1      1870 9.05645E-01 9.14439E-01-5.88418E-02
 -1      1871 6.91665E-01 6.86098E-01-2.78213E-03
 -1      1872 7.76196E-01 7.87010E-01 1.10702E-01
 -1      1873 7.79392E-01 7.81961E-01 1.08053E-01
 -1      1874 7.24697E-01 7.08082E-01 1.12772E-01
 -1      1875 6.64005E-01 6.87792E-01 1.14598E-01
 -1      1876 7.09975E-01 7.09770E-01 9.00855E-02
 -1      1877 5.70348E-02 4.07484E-02 4.13994E-02
 -1      1878 8.02573E-02 6.06854E-02 4.01659E-02
 -1      1879 1.18948E-01 1.17690E-01-4.76452E-02
 -1      1880 9.63647E-01 9.84889E-01-2.30180E-02
 -1      1881 7.28016E-02 5.37397E-02 2.97659E-02
 -1      1882 5.44185E-02 4.32879E-02 1.78544E-02
 -1      1883 5.83989E-01 6.02471E-01 1.23219E-01
 -1      1884 9.26590E-01 9.32835E-01 5.53656E-02
 -1      1885 4.37829E-02 2.77271E-02-2.00016E-02
 -1      1886 8.84059E-01 8.84222E-01 4.72238E-02
 -1      1887 3.71423E-01 3.86760E-01 9.07025E-02
 -1      1888 8.96751E-01 9.07330E-01-7.08215E-02
 -1      1889 9.27014E-01 9.32930E-01-5.54839E-02
 -1      1890 9.09097E-01 9.10101E-01-4.69537E-02
 -1      1891 8.25520E-01 8.36537E-01-9.68917E-02
 -1      1892 2.58016E-01 2.29772E-01-1.15313E-01
 -1      1893 9.49627E-01 9.76057E-01-3.47091E-02
 -1      1894 9.71461E-02 9.23514E-02-6.35156E-02
 -1      1895 6.38592E-01 6.25017E-01 1.22459E-01
 -1      1896 7.43749E-01 7.71825E-01 1.15857E-01
 -1      1897 9.10980E-01 9.45827E-01-5.90182E-02
 -1      1898 8.96903E-01 9.03453E-01 6.80816E-02
 -1      1899 3.29104E-02 1.57182E-02-2.03092E-02
 -1      1900 8.38857E-02 8.87396E-02-1.46277E-02
 -1      1901 9.37309E-01 9.46610E-01 4.25461E-02
 -1      1902 8.43883E-01 8.74605E-01 8.38149E-02
 -1      1903 9.37936E-01 9.54665E-01 4.39575E-02
 -1      1904 9.22925E-01 9.34860E-01 3.86261E-02
 -1      1905 8.42132E-01 8.49879E-01 7.14115E-02
 -1      1906 7.96061E-01 8.33379E-01 9.32350E-02
 -1      1907 8.31808E-01 8.41115E-01 1.19446E-02
 -1      1908 6.49396E-01 7.00772E-01 1.29384E-01
 -1      1909 7.47331E-01 7.54754E-01 8.06765E-02
 -1      1910 7.77041E-01 7.85115E-01 1.07951E-01
 -1      1911 7.73296E-02 5.39757E-02-2.27442E-02
 -1      1912 8.19987E-01 8.23569E-01-9.64492E-02
 -1      1913 9.51110E-01 9.53523E-01 3.84900E-02
 -1      1914 8.91861E-01 8.87564E-01 4.81225E-02
 -1      1915 5.45514E-02 4.69072E-02-4.69690E-02
 -1      1916 9.81283E-02 8.49670E-02-7.48362E-02
 -1      1917 1.13357E-01 1.18588E-01-5.70336E-02
 -1      1918 2.31783E-01 2.25719E-01-1.07375E-01
 -1      1919 1.75624E-01 1.73673E-01-9.25333E-02
 -1      1920 3.28048E-01 2.81638E-01-1.43247E-01
 -1      1921 2.70483E-01 2.63839E-01-7.96444E-02
 -1      1922 1.20248E-01 1.26074E-01-4.97217E-02
 -1      1923 9.38894E-01 9.72045E-01-4.50130E-02
 -1      1924 9.42229E-01 9.64272E-01-2.92684E-02
 -1      1925 8.73582E-01 9.15545E-01-6.94681E-02
 -1      1926 8.74956E-01 9.16540E-01-7.93603E-02
 -1      1927 1.02986E-01 1.12467E-01-5.44080E-03
 -1      1928 9.39102E-01 9.35437E-01 2.20645E-02
 -1      1929 3.74118E-01 3.89991E-01 1.23698E-01
 -1      1930 9.04839E-01 9.28656E-01-4.71829E-02
 -1      1931 1.25805E-01 1.32121E-01 4.37407E-02
 -1      1932 2.12877E-01 2.14347E-01 6.26320E-02
 -1      1933 7.77568E-02 7.94645E-02 1.89941E-02
 -1      1934 7.38070E-02 7.77846E-02 3.08006E-02
 -1      1935 1.72709E-01 1.66744E-01 5.50592E-02
 -1      1936 2.03462E-01 2.04869E-01 8.38747E-02
 -1      1937 4.88033E-02 3.63707E-02-1.12642E-02
 -1      1938 4.22921E-02 2.68205E-02-1.23783E-02
 -1      1939 1.29245E-02 1.82582E-03 8.96115E-03
 -1      1940 8.32815E-02 5.82598E-02 3.68474E-02
 -1      1941 6.19587E-02 3.85846E-02 2.74210E-02
 -1      1942 2.32195E-02 8.48529E-03 1.41609E-02
 -1      1943 1.06372E-01 7.41612E-02 5.22135E-02
 -1      1944 3.90794E-02 1.87145E-02 2.52334E-02
 -1      1945 2.74254E-02 1.05599E-02-7.98671E-03
 -1      1946 3.05096E-01 2.69207E-01 1.13892E-01
 -1      1947 2.77555E-01 2.47228E-01 1.29625E-01
 -1      1948 9.18417E-02 8.24477E-02-5.74698E-02
 -1      1949 7.10988E-02 3.47887E-02 4.99093E-02
 -1      1950 3.12323E-02 1.60906E-02 2.19697E-02
 -1      1951 9.17185E-01 9.19580E-01 1.74636E-02
 -1      1952 9.30193E-01 9.37797E-01 6.78024E-03
 -1      1953 1.30459E-01 1.17748E-01 8.88261E-02
 -1      1954 6.48639E-02 6.55263E-02 4.32938E-02
 -1      1955 2.35901E-01 2.27116E-01 1.14196E-01
 -1      1956 1.10524E-01 1.18363E-01-3.82580E-02
 -1      1957 9.38460E-01 9.56113E-01-2.56097E-02
 -1      1958 9.47825E-01 9.69657E-01-2.33051E-02
 -1      1959 9.30696E-01 9.54080E-01-3.18091E-02
 -1      1960 4.37801E-01 4.24248E-01 1.25680E-01
 -1      1961 9.11644E-01 9.07753E-01-4.37498E-02
 -1      1962 8.10731E-01 8.11782E-01 7.29594E-03
 -1      1963 8.59157E-01 8.69049E-01-1.07322E-03
 -1      1964 1.07705E-01 8.10922E-02 5.22474E-02
 -1      1965 3.32977E-01 3.23742E-01 7.90044E-02
 -1      1966 2.63475E-01 2.56097E-01 8.62689E-02
 -1      1967 5.74502E-02 3.39486E-02 3.92491E-02
 -1      1968 5.80052E-02 4.87929E-02 2.39998E-02
 -1      1969 1.95637E-01 1.76818E-01 1.12522E-01
 -1      1970 9.24306E-01 9.42615E-01 4.11221E-02
 -1      1971 2.27177E-01 2.10947E-01 8.28624E-02
 -1      1972 9.33738E-01 9.44811E-01 2.56414E-03
 -1      1973 1.37483E-01 9.47922E-02 7.40657E-02
 -1      1974 8.75228E-02 4.36081E-02 5.83254E-02
 -1      1975 8.72492E-02 6.25529E-02 5.83622E-02
 -1      1976 9.82700E-01 9.95998E-01-1.00238E-02
 -1      1977 9.87846E-01 9.98007E-01-8.23471E-03
 -1      1978 8.80599E-01 9.20657E-01 7.70999E-02
 -1      1979 8.75294E-01 8.93826E-01 6.59055E-02
 -1      1980 1.13810E-01 6.88294E-02 7.07233E-02
 -1      1981 4.14646E-01 4.07890E-01-1.33524E-01
 -1      1982 8.66068E-01 8.84975E-01 8.82114E-02
 -1      1983 8.47565E-01 8.85246E-01 7.95574E-02
 -1      1984 3.12568E-01 2.91152E-01-1.24251E-01
 -1      1985 8.12722E-01 8.32859E-01 1.03097E-01
 -1      1986 1.68457E-02 3.59630E-03-7.21129E-03
 -1      1987 1.28818E-02 1.48021E-03-8.98745E-03
 -1      1988 4.00748E-02 2.24578E-02-1.55944E-02
 -1      1989 6.24035E-02 3.80547E-02-2.40294E-02
 -1      1990 9.48935E-01 9.57148E-01-4.56522E-02
 -1      1991 9.17513E-01 9.30181E-01-6.68442E-02
 -1      1992 8.47583E-01 8.49402E-01-8.73650E-02
 -1      1993 9.05838E-01 9.02294E-01-5.11047E-02
 -1      1994 9.42028E-01 9.74570E-01 4.26113E-02
 -1      1995 8.33939E-01 8.64799E-01-9.56822E-02
 -1      1996 8.46256E-01 8.65249E-01-9.46967E-02
 -1      1997 8.27873E-01 8.41299E-01-7.70558E-02
 -1      1998 7.51507E-01 7.91392E-01-1.17270E-01
 -1      1999 9.29483E-01 9.34591E-01-4.02021E-02
 -1      2000 9.20808E-01 9.22419E-01-4.68029E-02
 -1      2001 9.10829E-01 9.11773E-01-4.06013E-02
 -1      2002 9.36089E-01 9.43741E-01-4.81831E-02
 -1      2003 9.25442E-01 9.29651E-01-5.47230E-02
 -1      2004 7.62388E-01 7.81191E-01-8.36225E-02
 -1      2005 1.62660E-01 1.31708E-01 9.47864E-02
 -1      2006 1.64081E-01 1.52583E-01 7.58946E-02
 -1      2007 1.50374E-01 1.32553E-01 9.36438E-02
 -1      2008 2.43354E-01 2.06132E-01 1.16875E-01
 -1      2009 6.41581E-02 5.57538E-02 4.85597E-02
 -1      2010 7.83157E-02 7.71974E-02 4.73152E-02
 -1      2011 7.30687E-02 7.00748E-02 5.42781E-02
 -1      2012 6.85263E-02 6.28658E-02 3.93324E-02
 -1      2013 8.65928E-02 8.61255E-02 4.03104E-02
 -1      2014 1.44249E-02-1.88014E-03 1.35762E-02
 -1      2015 4.03527E-02 1.36127E-02 3.10767E-02
 -1      2016 2.50827E-02 6.61474E-03 1.90078E-02
 -1      2017 1.90152E-02 3.04803E-03 1.52215E-02
 -1      2018 3.83941E-02 3.17102E-03 3.26820E-02
 -1      2019 5.39018E-02 1.85525E-02 4.04561E-02
 -1      2020 6.92885E-02 3.17926E-02 5.15305E-02
 -1      2021 2.05306E-02 7.22132E-04 1.73019E-02
 -1      2022 3.05904E-02 1.03653E-02 2.39438E-02
 -1      2023 6.87820E-02 7.06814E-02 3.69264E-02
 -1      2024 8.55013E-02 6.01030E-02-3.71618E-02
 -1      2025 2.68890E-02 1.18705E-02 1.75813E-02
 -1      2026 2.19380E-02 1.44505E-03-1.83641E-02
 -1      2027 6.22963E-02 2.45150E-02-4.51725E-02
 -1      2028 3.07961E-02 9.61905E-03-2.23060E-02
 -1      2029 3.72942E-02 1.35821E-02-2.85106E-02
 -1      2030 1.50134E-02-1.44672E-03-1.39849E-02
 -1      2031 4.62978E-02 1.85703E-02-3.45336E-02
 -1      2032 2.34913E-02 5.32288E-03-1.79341E-02
 -1      2033 4.05809E-02 4.64381E-03-3.41556E-02
 -1      2034 7.51585E-02 3.79711E-02-5.45379E-02
 -1      2035 8.67886E-01 8.81461E-01-8.97403E-02
 -1      2036 9.35181E-01 9.35674E-01-4.35661E-02
 -1      2037 6.43221E-02 4.17163E-02-4.23185E-02
 -1      2038 2.82125E-02 1.11836E-02-1.62134E-02
 -1      2039 4.38095E-02 2.33197E-02-2.75548E-02
 -1      2040 9.84538E-01 9.96527E-01-6.82841E-03
 -1      2041 1.34858E-01 1.14838E-01-8.88043E-02
 -1      2042 9.63716E-01 9.82957E-01 3.01204E-02
 -1      2043 5.77978E-01 6.44374E-01-1.51799E-01
 -1      2044 6.89535E-01 7.28193E-01-1.14079E-01
 -1      2045 9.34572E-02 7.03767E-02-6.07034E-02
 -1      2046 3.20808E-01 3.22274E-01 3.09982E-02
 -1      2047 4.42006E-01 4.22631E-01 1.13407E-01
 -1      2048 2.11587E-01 1.75089E-01-9.11922E-02
 -1      2049 1.88503E-01 1.64598E-01-7.51126E-02
 -1      2050 7.64467E-01 7.61815E-01 9.47499E-02
 -1      2051 1.48529E-01 1.33823E-01-6.59345E-02
 -1      2052 7.84207E-01 8.18291E-01-1.02101E-01
 -1      2053 9.21561E-01 9.31073E-01-3.22599E-02
 -1      2054 8.78425E-01 8.66969E-01 1.62189E-02
 -1      2055 8.53548E-01 8.43127E-01 2.39063E-02
 -1      2056 8.92040E-01 8.84243E-01-2.37287E-02
 -1      2057 1.84553E-01 1.76067E-01-7.72762E-02
 -1      2058 2.27780E-01 2.10043E-01-8.52184E-02
 -1      2059 8.99293E-01 9.21305E-01-2.33575E-02
 -1      2060 5.14788E-01 5.02068E-01 8.33334E-02
 -1      2061 1.96497E-01 2.07602E-01-1.83170E-02
 -1      2062 6.13849E-02 5.14979E-02-4.10369E-02
 -1      2063 6.87784E-01 7.04572E-01-1.03522E-01
 -1      2064 7.57831E-01 7.66607E-01 4.12037E-02
 -1      2065 7.73238E-01 7.67867E-01 2.18270E-02
 -1      2066 7.52932E-01 7.57082E-01 6.90957E-02
 -1      2067 9.08197E-01 9.02485E-01 2.44896E-02
 -1      2068 2.70078E-01 2.31367E-01 1.10635E-01
 -1      2069 9.06629E-01 9.28264E-01 8.80263E-03
 -1      2070 2.53329E-01 2.21899E-01-1.01931E-01
 -1      2071 2.57864E-01 2.61027E-01 7.17006E-02
 -1      2072 8.40558E-01 8.45592E-01 2.45361E-02
 -1      2073 9.58694E-01 9.74851E-01 6.15891E-03
 -1      2074 9.52137E-01 9.70155E-01-1.06471E-04
 -1      2075 1.68891E-01 1.23674E-01-8.96398E-02
 -1      2076 1.67120E-01 1.36353E-01-6.45200E-02
 -1      2077 9.58604E-01 9.74743E-01-6.13609E-03
 -1      2078 8.96646E-01 9.07127E-01 7.06039E-02
 -1      2079 9.32838E-01 9.56638E-01 3.75910E-02
 -1      2080 9.68774E-02 1.01378E-01-1.87447E-03
 -1      2081 6.72591E-01 7.00414E-01-1.03031E-01
 -1      2082 4.93299E-01 5.00410E-01-1.25585E-01
 -1      2083 8.42264E-01 8.59420E-01 2.66909E-02
 -1      2084 8.42335E-01 8.40939E-01 1.01249E-02
 -1      2085 8.60772E-01 8.55064E-01-1.27260E-04
 -1      2086 1.02670E-01 9.18520E-02 7.04538E-02
 -1      2087 1.59085E-01 1.39019E-01-6.11553E-02
 -1      2088 5.69670E-01 5.47749E-01 1.38079E-01
 -1      2089 8.41999E-01 8.40304E-01-1.05339E-02
 -1      2090 8.71286E-02 7.89467E-02 4.31587E-02
 -1      2091 8.80699E-01 9.11252E-01 6.83988E-02
 -1      2092 9.74271E-01 9.89662E-01 1.81293E-02
 -1      2093 9.34075E-01 9.60908E-01 5.07295E-02
 -1      2094 3.97308E-01 4.07566E-01-7.18228E-02
 -1      2095 4.76341E-01 4.59773E-01-1.23032E-01
 -1      2096 1.48968E-01 1.60221E-01 2.31237E-02
 -1      2097 9.50365E-02 7.34331E-02-1.67529E-02
 -1      2098 2.94412E-02 1.71906E-02 1.58636E-02
 -1      2099 8.56072E-02 9.06521E-02-2.49037E-02
 -1      2100 9.08460E-01 9.04554E-01-3.79248E-02
 -1      2101 1.49529E-01 1.32206E-01-1.62282E-02
 -1      2102 1.60030E-01 1.24482E-01-7.34305E-02
 -1      2103 5.39669E-01 5.90343E-01-1.53527E-01
 -1      2104 6.60701E-01 6.60146E-01-3.58969E-02
 -1      2105 8.58635E-01 8.97588E-01 7.52386E-02
 -1      2106 3.07229E-01 3.04869E-01 1.26471E-01
 -1      2107 7.54621E-01 7.59040E-01-7.75874E-02
 -1      2108 4.12192E-01 3.97660E-01-1.22667E-01
 -1      2109 1.66760E-02 3.89905E-03 7.43700E-03
 -1      2110 1.06341E-01 1.16133E-01-1.58891E-02
 -1      2111 1.22821E-01 1.22201E-01 2.09745E-02
 -1      2112 6.16848E-02 6.60023E-02 2.84908E-02
 -1      2113 4.84452E-02 4.43903E-02-3.96904E-02
 -1      2114 1.37483E-01 1.32757E-01-3.99315E-02
 -3
    1PSTEP                         2           1           1          
  100CL  101 1.000000000        2114                     0    1           1
 -4  STRESS      6    1
 -5  SXX         1    4    1    1
 -5  SYY         1    4    2    2
 -5  SZZ         1    4    3    3
 -5  SXY         1    4    1    2
 -5  SYZ         1    4    2    3
 -5  SZX         1    4    3    1
 -1         1 7.30996E+04 2.29841E+04 2.36524E+04 1.40853E+04-3.22846E+03-1.40083E+04
 -1         2 7.34233E+04 2.31147E+04 2.39527E+04 1.40798E+04 2.90074E+03 1.39104E+04
 -1         3 1.28116E+04 4.69915E+03 3.91561E+03-2.87372E+03 5.52764E+02-2.98709E+03
 -1         4 1.29571E+04 4.77558E+03 3.98069E+03-2.90974E+03-5.86832E+02 3.00963E+03
 -1         5 1.28446E+04 4.72929E+03 3.84317E+03-2.84879E+03-6.10758E+02 3.03452E+03
 -1         6 1.30357E+04 4.79288E+03 3.90183E+03-2.87000E+03 6.49802E+02-3.05158E+03
 -1         7 7.27994E+04 2.28846E+04 2.36464E+04 1.39658E+04 2.78198E+03 1.38326E+04
 -1         8 7.32386E+04 2.28888E+04 2.37402E+04 1.41470E+04-3.22632E+03-1.40083E+04
 -1         9 5.70883E+04 1.70876E+04 2.18349E+04 1.41895E+04-1.72246E+02 5.04390E+03
 -1        10 6.36379E+04 2.56680E+04 2.71881E+04 1.83856E+04-6.89289E+02 1.73326E+03
 -1        11 5.79053E+04 2.45597E+04 2.39607E+04 1.69084E+04 1.99713E+01 5.67335E+00
 -1        12 6.40975E+04 2.74172E+04 2.68452E+04 1.93509E+04 2.49445E+02-2.76395E+03
 -1        13 6.19363E+04 2.46301E+04 2.58325E+04 1.76204E+04 5.93733E+01-5.86967E+03
 -1        14 7.60176E+04 3.25791E+04 3.25790E+04 2.00805E+04-8.84396E-04 8.29482E+03
 -1        15 7.10625E+04 3.04554E+04 3.04554E+04 2.06381E+04-1.61496E-03 3.32252E+03
 -1        16 5.98963E+04 2.56699E+04 2.56699E+04 1.77446E+04 3.68949E-03 1.76663E+03
 -1        17 6.13816E+04 2.63065E+04 2.63064E+04 1.81183E+04-4.31359E-03-1.55947E+03
 -1        18 6.78966E+04 2.90986E+04 2.90986E+04 2.00015E+04-2.59854E-03-4.43635E+03
 -1        19 7.09043E+04 3.03876E+04 3.03876E+04 1.97463E+04 1.31875E-03-8.57901E+03
 -1        20 4.18137E+04 1.80284E+04 1.53623E+04 7.71037E+03 3.65238E+01-1.18819E+04
 -1        21 3.74836E+04 1.57408E+04 1.60955E+04 6.68692E+03 2.54965E+02-1.18311E+04
 -1        22 2.94566E+04 1.23829E+04 1.18181E+04 5.03555E+03 8.36543E+01-8.35280E+03
 -1        23 2.94394E+04 1.22472E+04 1.25411E+04 3.05834E+03-3.53283E+01-8.70776E+03
 -1        24 2.14477E+04 7.85479E+03 6.44450E+03 8.40963E+02-4.96137E+01-5.06397E+03
 -1        25 6.01719E+04 2.57880E+04 2.57880E+04 8.72278E+03 1.04388E-03-1.67950E+04
 -1        26 4.33723E+04 1.85881E+04 1.85882E+04 7.56723E+03-2.06940E-03-1.30721E+04
 -1        27 3.51588E+04 1.50681E+04 1.50681E+04 5.75542E+03-2.29621E-03-1.04706E+04
 -1        28 2.97376E+04 1.27447E+04 1.27447E+04 4.17844E+03 1.13387E-03-8.71800E+03
 -1        29 2.85054E+04 1.22166E+04 1.22166E+04 2.02652E+03-7.03792E-04-8.23895E+03
 -1        30 2.15828E+04 9.24978E+03 9.24979E+03-1.08969E+03-1.17425E-03-5.72186E+03
 -1        31 4.26554E+03 1.66532E+03 1.87171E+03-1.53734E+03 8.80367E+01 1.76699E+03
 -1        32 2.74114E+03 1.21988E+03 1.20079E+03-1.13738E+03 6.85057E+01 9.63397E+02
 -1        33 2.31469E+03 8.91405E+02 9.90592E+02-6.84584E+02-8.80406E-01-1.55129E+00
 -1        34 2.69584E+03 1.18920E+03 1.17173E+03-1.19456E+03-6.31078E+01-9.37972E+02
 -1        35 4.26581E+03 1.61554E+03 1.85751E+03-1.47737E+03-7.72731E+01-1.78591E+03
 -1        36 7.56549E+03 3.24237E+03 3.24236E+03-2.44736E+03 9.21692E-04 2.03316E+03
 -1        37 3.54592E+03 1.51969E+03 1.51969E+03-1.37384E+03 9.23005E-05 1.36871E+03
 -1        38 2.42134E+03 1.03773E+03 1.03773E+03-8.65339E+02-4.62669E-04 4.87013E+02
 -1        39 2.37491E+03 1.01783E+03 1.01783E+03-9.12608E+02 7.89787E-04-4.62109E+02
 -1        40 3.52144E+03 1.50920E+03 1.50919E+03-1.39618E+03-1.98307E-04-1.35617E+03
 -1        41 7.44707E+03 3.19161E+03 3.19161E+03-2.37908E+03-8.22335E-04-2.03791E+03
 -1        42 3.98914E+04 1.56431E+04 1.22352E+04 7.70560E+03-1.77686E+02 1.05259E+04
 -1        43 3.78979E+04 1.59482E+04 1.62915E+04 6.61959E+03-2.24325E+02 1.18236E+04
 -1        44 2.96611E+04 1.24772E+04 1.19216E+04 5.06664E+03-6.71928E+01 8.35159E+03
 -1        45 2.95692E+04 1.24910E+04 1.20032E+04 3.52663E+03 3.07504E+02 8.70325E+03
 -1        46 2.15751E+04 8.07476E+03 6.65885E+03 8.39867E+02 6.65880E+01 5.21663E+03
 -1        47 6.14057E+04 2.63168E+04 2.63168E+04 9.31086E+03-4.78415E-04 1.65299E+04
 -1        48 4.39040E+04 1.88160E+04 1.88160E+04 7.05094E+03 9.27642E-04 1.31511E+04
 -1        49 3.51739E+04 1.50746E+04 1.50746E+04 5.74496E+03 2.35561E-03 1.04493E+04
 -1        50 2.93464E+04 1.25770E+04 1.25771E+04 4.11621E+03-1.14998E-03 8.74168E+03
 -1        51 2.99846E+04 1.28506E+04 1.28506E+04 2.14070E+03 1.51097E-03 8.84722E+03
 -1        52 2.19082E+04 9.38924E+03 9.38925E+03-1.10644E+03 1.31449E-03 5.84284E+03
 -1        53 3.63133E+03 1.49624E+03 1.68151E+03-1.29091E+03-5.60796E+01-1.78689E+03
 -1        54 2.70066E+03 1.05283E+03 1.16550E+03-1.07760E+03-4.30375E+01-9.02717E+02
 -1        55 2.40923E+03 9.59703E+02 1.02401E+03-5.82910E+02 1.50156E+00-3.48935E+00
 -1        56 2.77407E+03 1.22610E+03 1.19321E+03-1.11399E+03 7.73617E+01 9.58068E+02
 -1        57 3.60417E+03 1.58439E+03 1.66819E+03-1.30232E+03 4.31467E+01 1.76936E+03
 -1        58 7.38869E+03 3.16660E+03 3.16659E+03-2.22513E+03-3.50357E-04-2.01243E+03
 -1        59 3.46649E+03 1.48565E+03 1.48564E+03-1.30077E+03-3.28295E-05-1.40975E+03
 -1        60 2.52581E+03 1.08250E+03 1.08250E+03-8.23239E+02 7.10838E-04-4.74280E+02
 -1        61 2.44721E+03 1.04882E+03 1.04881E+03-7.90992E+02-6.31005E-04 4.75883E+02
 -1        62 3.31184E+03 1.41937E+03 1.41937E+03-1.29894E+03 6.36696E-05 1.42383E+03
 -1        63 7.27334E+03 3.11716E+03 3.11715E+03-2.18822E+03 4.14857E-04 2.01997E+03
 -1        64 2.26820E+04 9.48192E+03 8.28458E+03 5.95298E+02 2.18118E+01 5.88717E+03
 -1        65 2.95748E+04 1.22857E+04 1.26155E+04 3.00859E+03 9.89503E+01 8.87921E+03
 -1        66 2.95126E+04 1.23758E+04 1.18667E+04 5.05864E+03-7.67061E+01 8.25084E+03
 -1        67 3.72795E+04 1.60028E+04 1.48458E+04 5.98690E+03-4.27803E+02 1.11168E+04
 -1        68 3.96403E+04 1.56625E+04 1.21375E+04 7.55388E+03-2.60361E+02 1.05631E+04
 -1        69 2.10433E+04 9.01856E+03 9.01856E+03-8.62426E+02 1.98400E-03 5.98076E+03
 -1        70 2.86092E+04 1.22611E+04 1.22611E+04 1.52018E+03 1.01200E-04 8.35397E+03
 -1        71 2.97914E+04 1.27678E+04 1.27678E+04 4.17511E+03-1.47661E-03 8.68481E+03
 -1        72 3.44486E+04 1.47637E+04 1.47638E+04 5.88699E+03 2.38756E-03 1.02390E+04
 -1        73 4.56943E+04 1.95833E+04 1.95833E+04 6.64280E+03-4.37401E-04 1.36124E+04
 -1        74 6.09408E+04 2.61175E+04 2.61176E+04 9.22200E+03-9.19946E-04 1.64719E+04
 -1        75 6.36966E+04 2.69719E+04 2.62229E+04 1.92085E+04 1.08121E+02-5.28934E+03
 -1        76 6.40503E+04 2.55924E+04 2.71412E+04 1.85897E+04 7.61815E+02-1.39500E+03
 -1        77 5.58820E+04 2.12395E+04 2.36660E+04 1.50738E+04 1.00937E+01-2.26133E+01
 -1        78 6.48351E+04 2.76890E+04 2.70427E+04 1.96412E+04-2.23486E+02 2.44582E+03
 -1        79 5.76563E+04 1.72040E+04 2.20047E+04 1.40463E+04-1.71383E+02 5.01871E+03
 -1        80 7.20291E+04 3.08697E+04 3.08697E+04 2.01886E+04 1.64325E-03-8.78831E+03
 -1        81 6.95666E+04 2.98143E+04 2.98143E+04 2.09407E+04 2.10089E-03-3.09925E+03
 -1        82 6.21748E+04 2.66464E+04 2.66464E+04 1.81065E+04-2.27446E-03-9.68254E+02
 -1        83 6.38817E+04 2.73779E+04 2.73779E+04 1.85507E+04 2.96762E-03 6.80654E+02
 -1        84 6.93151E+04 2.97065E+04 2.97065E+04 2.02122E+04 2.37128E-04 3.64624E+03
 -1        85 7.51833E+04 3.22215E+04 3.22215E+04 1.98304E+04-9.84565E-04 8.23043E+03
 -1        86 2.27683E+04 9.52229E+03 8.28729E+03 5.68483E+02 2.27934E+00-5.97818E+03
 -1        87 2.95386E+04 1.24053E+04 1.17433E+04 3.52596E+03-3.92814E+02-8.49008E+03
 -1        88 2.96492E+04 1.24178E+04 1.19141E+04 5.09815E+03 7.06081E+01-8.24747E+03
 -1        89 3.71231E+04 1.58713E+04 1.47914E+04 6.01728E+03 4.77373E+02-1.11727E+04
 -1        90 4.34094E+04 1.81192E+04 1.84506E+04 7.61182E+03 2.22558E+02-1.35374E+04
 -1        91 2.11527E+04 9.06544E+03 9.06545E+03-8.50708E+02-1.96527E-03-6.00702E+03
 -1        92 3.03787E+04 1.30195E+04 1.30195E+04 1.73473E+03-7.69603E-04-8.84361E+03
 -1        93 2.93173E+04 1.25646E+04 1.25646E+04 4.10807E+03 6.68957E-04-8.48318E+03
 -1        94 3.43911E+04 1.47391E+04 1.47391E+04 5.88713E+03-2.37538E-03-1.02284E+04
 -1        95 4.34205E+04 1.86088E+04 1.86088E+04 6.65365E+03 4.89727E-04-1.34882E+04
 -1        96 5.88789E+04 2.52338E+04 2.52339E+04 9.62955E+03-2.06260E-04-1.64161E+04
 -1        97 2.83126E+04-1.85003E+03-1.83572E+03-6.69296E+02 6.01233E+01-1.43073E+03
 -1        98 2.25932E+04 4.08523E+01 5.63937E+01 1.83477E+02-9.18509E+01-2.90779E+02
 -1        99 1.81041E+04-3.89124E+00 9.92544E+00 3.50945E+02-1.82777E+01-2.98432E+02
 -1       100 1.28774E+04 1.84733E+01 6.34781E+00 3.36131E+02-9.57569E+01-1.61551E+02
 -1       101 7.70184E+03-3.93853E+02-3.27671E+02 6.97587E+02-9.39801E+01 6.59539E+01
 -1       102 4.58721E+04 1.00709E+03 1.49843E+03 2.93372E+03 8.07340E+02 2.58906E+03
 -1       103 2.56880E+04 9.51613E+01 1.32930E+02 4.96952E+02 4.16494E+02-5.26486E+01
 -1       104 2.03137E+04-9.21618E+01-8.91854E+01 2.61266E+02-1.58958E+01-3.15490E+02
 -1       105 1.55866E+04 6.42643E+01 5.59588E+01 3.55520E+02-4.45785E+00-2.37529E+02
 -1       106 1.05077E+04 8.04581E+01 3.88940E+00 2.76444E+02 3.76647E+01-2.44751E+02
 -1       107 9.16469E+03 7.17122E+02 3.06060E+02-4.73838E+02 2.25295E+02-7.16064E+02
 -1       108 2.74348E+04-1.43257E+03-1.48965E+03-8.12577E+02 1.93978E+02 1.33595E+03
 -1       109 2.26007E+04-4.22351E+01-1.57191E+01 2.11977E+02 1.02004E+02 3.49163E+02
 -1       110 1.80572E+04 2.81268E+01 1.51528E+01 3.60002E+02 5.88440E+01 2.95419E+02
 -1       111 1.30179E+04 3.41760E+01 1.64497E+01 3.14307E+02 4.69041E+01 1.89867E+02
 -1       112 7.76608E+03-3.19560E+02-3.09815E+02 7.21765E+02 8.83216E+01-2.21837E+01
 -1       113 4.66129E+04 2.41385E+03 2.58508E+03 3.00501E+03-1.42178E+03-2.85839E+03
 -1       114 2.56353E+04 3.37179E+01 1.27811E+02 3.13945E+02-1.92282E+01 1.74910E+02
 -1       115 2.03950E+04-3.33531E+01-6.09999E+01 2.84766E+02-1.20795E+01 3.45943E+02
 -1       116 1.55494E+04 8.23356E+01 6.56947E+01 3.30534E+02 1.05431E+02 2.71628E+02
 -1       117 1.06005E+04 1.22698E+02 6.83578E+01 3.29112E+02-9.58784E+01 2.39984E+02
 -1       118 9.12703E+03 7.28178E+02 2.71465E+02-4.84156E+02-1.92220E+02 7.42352E+02
 -1       119 7.99573E+03-5.49262E+02-5.12400E+02 7.91831E+02 5.74747E+01-7.64175E+01
 -1       120 1.29700E+04 6.89431E+01 3.83205E+01 3.29862E+02 4.79883E+01 2.06993E+02
 -1       121 1.80668E+04-7.33143E+01-7.34072E+01 5.07420E+02-6.65227E+00 3.45985E+02
 -1       122 2.26264E+04 1.00342E+01 9.06183E-01 1.94076E+02 6.89249E+01 3.10184E+02
 -1       123 2.74582E+04-1.55656E+03-1.46737E+03-7.32768E+02 2.60818E+02 1.44482E+03
 -1       124 9.12634E+03 4.37082E+02 8.64253E+01-3.72597E+02-1.77044E+02 6.73355E+02
 -1       125 1.04600E+04 1.50399E+02 7.27837E+01 2.80527E+02-1.52469E+02 2.51199E+02
 -1       126 1.56416E+04 8.24085E+01 5.70530E+01 4.32584E+02 4.67860E+01 2.88203E+02
 -1       127 2.02567E+04-1.18639E+02-8.94089E+01 3.26627E+02 3.46801E+00 3.54719E+02
 -1       128 2.57391E+04 5.09609E+01 1.30460E+02 4.30515E+02-2.16318E+02 1.91557E+02
 -1       129 4.65470E+04 2.12007E+03 2.92739E+03 3.18184E+03-1.26616E+03-3.13022E+03
 -1       130 8.09364E+03-4.68488E+02-4.64832E+02 7.46967E+02-2.07987E+01 2.95154E+01
 -1       131 1.28778E+04 3.35564E+01-3.66076E-01 3.70874E+02-9.66260E+01-2.04533E+02
 -1       132 1.79861E+04 3.87236E+01 3.15119E+01 3.98232E+02-1.20067E+02-3.19343E+02
 -1       133 2.26310E+04 3.71559E+01 6.07790E+01 1.91080E+02-8.36629E+01-2.89371E+02
 -1       134 2.83667E+04-1.73845E+03-1.75824E+03-7.28280E+02 5.46536E+01-1.42264E+03
 -1       135 9.11080E+03 4.38863E+02 8.73368E+01-3.87301E+02 1.65614E+02-6.83526E+02
 -1       136 1.04523E+04 8.87843E+01-9.46196E+00 2.77832E+02 4.23376E+01-2.60132E+02
 -1       137 1.55533E+04 1.00574E+02 7.04839E+01 3.62841E+02-9.26444E+01-2.95709E+02
 -1       138 2.03382E+04-4.26025E+01-2.48861E+01 3.10826E+02-1.15575E+02-3.13934E+02
 -1       139 2.57345E+04 1.28357E+02 1.81506E+02 4.99749E+02 4.48382E+02-4.79391E+01
 -1       140 4.59211E+04 1.16168E+03 1.52428E+03 2.91861E+03 6.30047E+02 2.64304E+03
 -1       141 1.97818E+04 8.46814E+03 8.44523E+03 5.69742E+03 5.80854E-02-3.68443E+01
 -1       142 1.57257E+04 6.64438E+03 6.71082E+03 3.00798E+03 3.27500E+01 1.99072E+03
 -1       143 2.40286E+04 1.02408E+04 1.00400E+04 7.90106E+03 1.23697E+02 2.86630E+03
 -1       144 2.42386E+04 1.02078E+04 1.00920E+04 7.74797E+03 2.27858E+01-2.73245E+03
 -1       145 1.53674E+04 6.58605E+03 6.58605E+03 2.92531E+03-9.91478E-04-1.85234E+03
 -1       146 2.40409E+04 1.04170E+04 1.04993E+04 9.29159E+03 1.10454E+01 8.15611E+00
 -1       147 1.96831E+04 8.38147E+03 8.14891E+03 5.67466E+03-1.82005E+02 3.59730E+03
 -1       148 1.50257E+04 5.91416E+03 6.28210E+03 2.20236E+03 1.61690E+00 1.53993E+01
 -1       149 1.96577E+04 8.38075E+03 8.13913E+03 5.68246E+03 1.30926E+02-3.29451E+03
 -1       150 1.30941E+04 5.51148E+03 5.61420E+03 1.49306E+03-2.63103E+01-2.44773E+03
 -1       151 1.29571E+04 5.55306E+03 5.55306E+03 1.31605E+03 8.70213E-04 2.49273E+03
 -1       152 2.57181E+04 1.14625E+04 1.08964E+04 9.34127E+03-2.16138E+02-5.19193E+03
 -1       153 2.77259E+04 1.18826E+04 1.18826E+04 8.60376E+03 3.61305E-04 4.79168E+03
 -1       154 1.75068E+04 7.12257E+03 7.35130E+03 3.96272E+03-3.24624E+01 6.54077E+02
 -1       155 2.28236E+04 9.69272E+03 9.58177E+03 7.32576E+03 1.75762E+00-8.37104E+02
 -1       156 2.10357E+04 8.82390E+03 8.75249E+03 6.42825E+03-3.44681E+01 1.71814E+03
 -1       157 1.87472E+04 7.95819E+03 8.01230E+03 4.92786E+03-4.64264E+00-1.80878E+03
 -1       158 1.79027E+04 7.47844E+03 7.35455E+03 4.29252E+03 1.00177E+02-3.59557E+03
 -1       159 1.26864E+04 4.56942E+03 5.18152E+03 1.19573E+03 3.00547E+01-8.89388E+02
 -1       160 2.70767E+04 1.15582E+04 1.14260E+04 9.69447E+03-5.91512E+01-1.70901E+03
 -1       161 1.80662E+04 7.30496E+03 7.33657E+03 4.30757E+03-4.18030E+01 3.63142E+03
 -1       162 2.76550E+04 1.18413E+04 1.16995E+04 9.49856E+03-7.40469E+01 1.53189E+03
 -1       163 2.18187E+04 9.30521E+03 8.68529E+03 7.02450E+03 1.80515E+02 4.87405E+03
 -1       164 1.27186E+04 4.55895E+03 5.15727E+03 1.27270E+03-4.75941E+01 9.26978E+02
 -1       165 2.22779E+04 9.27272E+03 8.55599E+03 7.08795E+03-1.34021E+02-4.74889E+03
 -1       166 2.30435E+04 9.74028E+03 9.62626E+03 7.41225E+03-2.43192E+01 7.47328E+02
 -1       167 2.10243E+04 9.01041E+03 9.01042E+03 6.37383E+03-3.15247E-04-1.94125E+03
 -1       168 1.69868E+04 6.82980E+03 7.07719E+03 3.65223E+03 2.64146E+01-6.70257E+02
 -1       169 1.89154E+04 7.92631E+03 7.92401E+03 5.11221E+03-1.27686E+01 1.66534E+03
 -1       170 2.58561E+04 1.12129E+04 1.03349E+04 7.44949E+03 2.50407E+02-6.56879E+03
 -1       171 9.76820E+03 3.72898E+03 4.14078E+03 2.85298E+02 5.08929E+00 1.64543E+03
 -1       172 3.24359E+04 1.35819E+04 1.36198E+04 1.10822E+04 2.39289E+02 3.59343E+03
 -1       173 2.46825E+04 1.08911E+04 1.04850E+04 7.66680E+03-1.43168E+02 6.31348E+03
 -1       174 1.69771E+04 6.88074E+03 6.89169E+03 2.66451E+03-1.76182E+02 4.24810E+03
 -1       175 3.23131E+04 1.35149E+04 1.39145E+04 1.08659E+04 5.49308E+02-2.80542E+03
 -1       176 1.66542E+04 6.94669E+03 6.83861E+03 2.75952E+03-7.64851E+01-3.79721E+03
 -1       177 9.76779E+03 3.74135E+03 4.13477E+03 1.14224E+02 6.42621E+01-1.57963E+03
 -1       178 3.46977E+04 1.47326E+04 1.51131E+04 1.04507E+04 1.26466E+02-9.22128E+03
 -1       179 1.05578E+04 4.23618E+03 4.70581E+03-3.20555E+02-2.61628E+01 2.97103E+03
 -1       180 1.06765E+04 4.25183E+03 4.73473E+03-2.08735E+02 2.04515E+01-2.97463E+03
 -1       181 3.30942E+04 1.50902E+04 1.45163E+04 1.07067E+04-1.24682E+02 7.97727E+03
 -1       182 4.81415E+04 2.06322E+04 2.06321E+04 1.49351E+04 4.83290E-03-7.33137E+03
 -1       183 5.15016E+04 1.98058E+04 1.99205E+04 1.25388E+04-1.18948E+03-1.17398E+04
 -1       184 3.85179E+04 1.65617E+04 1.51245E+04 8.67274E+03 4.02093E+02-1.08422E+04
 -1       185 4.39549E+04 1.68682E+04 1.82428E+04 1.25634E+04-6.80734E+02 6.08460E+03
 -1       186 5.07453E+04 1.97609E+04 1.98651E+04 1.25195E+04 1.04194E+03 1.10461E+04
 -1       187 3.63712E+04 1.53351E+04 1.38608E+04 8.78433E+03-5.22462E+02 9.52806E+03
 -1       188 1.54146E+04 6.23109E+03 5.95292E+03 4.53932E+02-2.88738E+02-3.96878E+03
 -1       189 1.14553E+04 4.55380E+03 4.44619E+03-1.56301E+03 2.20466E+02-3.03365E+03
 -1       190 7.96994E+03 3.07507E+03 3.40509E+03-9.56473E+02-1.07874E+02-2.27423E+03
 -1       191 7.89117E+03 3.07000E+03 3.36116E+03-1.06837E+03 8.75070E+01 2.26603E+03
 -1       192 1.14835E+04 4.55986E+03 4.46204E+03-1.63393E+03-2.21061E+02 3.03969E+03
 -1       193 1.54587E+04 6.27238E+03 5.94432E+03 3.72757E+02 2.75970E+02 3.99770E+03
 -1       194 4.89185E+04 2.02474E+04 2.08244E+04 1.52882E+04-3.22308E+02 2.59985E+03
 -1       195 4.32854E+04 1.69194E+04 1.78481E+04 1.32221E+04 6.59427E+02 4.60942E+03
 -1       196 3.00738E+04 1.28888E+04 1.28888E+04 9.55199E+03-2.04159E-04 3.97392E+03
 -1       197 3.60478E+04 1.54491E+04 1.54491E+04 1.06655E+04 8.92093E-04 5.24343E+03
 -1       198 3.21804E+04 1.37916E+04 1.37916E+04 9.47361E+03 1.20318E-03 6.17853E+03
 -1       199 4.19134E+04 1.79630E+04 1.79629E+04 1.32923E+04 8.98846E-04 1.26303E+03
 -1       200 4.32306E+04 1.85275E+04 1.85274E+04 1.36441E+04 1.91667E-03 2.19852E+03
 -1       201 3.07243E+04 1.26831E+04 1.29341E+04 1.01530E+04 1.48671E+02 2.42057E+03
 -1       202 4.34326E+04 1.85332E+04 1.82179E+04 1.41330E+04 5.70186E+01-2.43904E+03
 -1       203 4.19409E+04 1.79747E+04 1.79747E+04 1.34585E+04-1.43318E-03-1.23324E+03
 -1       204 2.55695E+04 1.11657E+04 1.10282E+04 9.42237E+03 3.78174E+01-4.40541E+02
 -1       205 3.84121E+04 1.63142E+04 1.59694E+04 1.25709E+04 2.88842E+01 9.44457E+00
 -1       206 2.56045E+04 1.13390E+04 1.10995E+04 9.35992E+03-6.87642E+01 4.64060E+02
 -1       207 4.80793E+04 1.93573E+04 2.06385E+04 1.41930E+04-3.71104E+02-4.62354E+03
 -1       208 4.70514E+04 2.01650E+04 2.01649E+04 1.52564E+04 6.36386E-04-3.36218E+03
 -1       209 2.81973E+04 1.20559E+04 1.20435E+04 1.01499E+04-2.68866E+01-2.40051E+03
 -1       210 3.01415E+04 1.23200E+04 1.26882E+04 9.97478E+03 1.89796E+02-4.13700E+03
 -1       211 4.01495E+04 1.71247E+04 1.68715E+04 1.28601E+04 2.85780E+02-5.38955E+03
 -1       212 2.74868E+04 1.22012E+04 1.16938E+04 9.26305E+03 9.01331E+01-6.31103E+03
 -1       213 3.16261E+04 1.35540E+04 1.35541E+04 7.32004E+03 2.56379E-05-9.64954E+03
 -1       214 3.45727E+04 1.48499E+04 1.40188E+04 8.02790E+03-2.04487E+02-9.53341E+03
 -1       215 2.72258E+04 1.16132E+04 1.09112E+04 8.31674E+03 1.81082E+02-5.67978E+03
 -1       216 3.34786E+04 1.43480E+04 1.43480E+04 8.33829E+03-3.14055E-04-8.43650E+03
 -1       217 2.64509E+04 1.13426E+04 1.05767E+04 5.97734E+03 2.37979E+02-6.86400E+03
 -1       218 2.87958E+04 1.21086E+04 1.22905E+04 6.89985E+03 2.65851E+01-8.36113E+03
 -1       219 2.28754E+04 9.62227E+03 9.34042E+03 7.22800E+03-1.21431E+02-5.56522E+03
 -1       220 2.34688E+04 9.83761E+03 9.99780E+03 3.66339E+03 5.90667E+00-6.22396E+03
 -1       221 2.39509E+04 1.02647E+04 1.02647E+04 4.67100E+03-2.75030E-04-6.36746E+03
 -1       222 1.85992E+04 7.89900E+03 7.73765E+03 5.17760E+03 4.30955E+01-3.44405E+03
 -1       223 2.39358E+04 1.01034E+04 1.02118E+04 5.53403E+03-9.42048E+01-5.87438E+03
 -1       224 2.13174E+04 8.96773E+03 8.47623E+03 6.33401E+03-8.99094E+01-3.84528E+03
 -1       225 1.95116E+04 8.07087E+03 7.61674E+03 1.58975E+03 2.78275E+02-4.87674E+03
 -1       226 2.30776E+04 9.89040E+03 9.89042E+03 2.67831E+03-1.73487E-03-6.44282E+03
 -1       227 1.68884E+04 7.18219E+03 7.01076E+03 3.49657E+03 3.68186E+01-3.66840E+03
 -1       228 1.51281E+04 6.29451E+03 6.35267E+03 2.14718E+03-8.98593E+01-3.02925E+03
 -1       229 1.50044E+04 6.43048E+03 6.43048E+03 1.13935E+03-1.14120E-03-3.44072E+03
 -1       230 1.21500E+04 5.20718E+03 5.20718E+03 6.41990E+02-7.46755E-04-2.66203E+03
 -1       231 6.39413E+03 2.74035E+03 2.74035E+03-7.35013E+02 2.20774E-04 1.23765E+03
 -1       232 6.94130E+03 2.84250E+03 2.93607E+03-6.94889E+02-4.59059E+01 1.63565E+03
 -1       233 1.10330E+04 4.72842E+03 4.72842E+03 8.08880E+02 7.96002E-04 1.98031E+03
 -1       234 8.82835E+03 3.78359E+03 3.78359E+03-5.72408E+00 5.26947E-04 2.13920E+03
 -1       235 1.20099E+04 5.14713E+03 5.14713E+03 5.28639E+02 6.31818E-04 2.70645E+03
 -1       236 7.97717E+03 3.20409E+03 3.36692E+03 2.87006E+01 8.32732E+01 3.77722E+02
 -1       237 8.53662E+03 3.65979E+03 3.60544E+03-3.41982E+02 2.66869E+01 9.54125E+02
 -1       238 1.13729E+04 4.27136E+03 4.68400E+03 7.08670E+02-1.26438E+02 1.29028E+03
 -1       239 8.62478E+03 3.69454E+03 3.64309E+03-4.20961E+02-2.71217E+01-8.93986E+02
 -1       240 7.94150E+03 3.12786E+03 3.40348E+03 3.70700E+01-8.69093E+01-3.65397E+02
 -1       241 1.36887E+04 5.17200E+03 5.66050E+03 1.80646E+03 1.15998E+02-5.30611E+02
 -1       242 9.76172E+03 4.18361E+03 4.18361E+03 4.52480E+02-5.38677E-05 5.86978E+00
 -1       243 1.38344E+04 5.27285E+03 5.71767E+03 1.76778E+03-1.25157E+02 5.41434E+02
 -1       244 6.91331E+03 2.77281E+03 2.91544E+03-6.93587E+02 6.36748E+01-1.62298E+03
 -1       245 6.40587E+03 2.74538E+03 2.74538E+03-8.17715E+02-1.54597E-04-1.22299E+03
 -1       246 1.15088E+04 4.37736E+03 4.75203E+03 5.77735E+02 1.24176E+02-1.25446E+03
 -1       247 1.13711E+04 4.72543E+03 4.89755E+03 9.19951E+02-2.39712E+01-2.00971E+03
 -1       248 8.94135E+03 3.83203E+03 3.83202E+03 1.02810E+02-6.52224E-04-2.11334E+03
 -1       249 3.10063E+04 1.32885E+04 1.32885E+04 7.32047E+03-1.09956E-03 9.30274E+03
 -1       250 3.17153E+04 1.31615E+04 1.26537E+04 7.94341E+03 3.67780E+02 8.81149E+03
 -1       251 2.58953E+04 1.10980E+04 1.10980E+04 7.91557E+03 8.48958E-05 5.64169E+03
 -1       252 2.97288E+04 1.27410E+04 1.27410E+04 8.52279E+03 1.31484E-03 7.10804E+03
 -1       253 2.63606E+04 1.13309E+04 1.05609E+04 5.93148E+03-2.41200E+02 6.81812E+03
 -1       254 2.85704E+04 1.20465E+04 1.21783E+04 6.88836E+03 2.68418E+01 8.26585E+03
 -1       255 2.21546E+04 9.47482E+03 9.41482E+03 7.03875E+03 1.35659E+01 5.52715E+03
 -1       256 2.26494E+04 9.70692E+03 9.70694E+03 3.74146E+03-2.96387E-04 6.14856E+03
 -1       257 2.34604E+04 1.00545E+04 1.00545E+04 4.65875E+03 1.13995E-04 6.33321E+03
 -1       258 1.87827E+04 8.03159E+03 8.01216E+03 5.24571E+03-1.14627E+01 3.76126E+03
 -1       259 2.36988E+04 1.00085E+04 1.01133E+04 5.53804E+03 9.98374E+01 5.89951E+03
 -1       260 2.13309E+04 8.96869E+03 8.40687E+03 6.28660E+03 7.76398E+01 4.09300E+03
 -1       261 1.87820E+04 7.74872E+03 7.30817E+03 1.69176E+03-2.95191E+02 5.00487E+03
 -1       262 2.36046E+04 9.94024E+03 9.82612E+03 3.14497E+03 1.46717E+02 6.79801E+03
 -1       263 1.79058E+04 7.44911E+03 7.22942E+03 3.53389E+03-1.43348E+02 3.94476E+03
 -1       264 1.52346E+04 6.52913E+03 6.52912E+03 1.94830E+03 1.18282E-03 3.15020E+03
 -1       265 1.48980E+04 6.38487E+03 6.38487E+03 1.09054E+03 9.16559E-04 3.44597E+03
 -1       266 1.74151E+04 6.97209E+03 7.31931E+03 3.80325E+03 2.36567E+01-1.97883E+00
 -1       267 1.88067E+04 8.06003E+03 8.06003E+03 4.95815E+03 1.92948E-04 3.18169E+02
 -1       268 1.85560E+04 7.91701E+03 7.89153E+03 4.84563E+03 2.39773E+01-3.62253E+02
 -1       269 1.82198E+04 7.66344E+03 7.73204E+03 4.56855E+03 5.54617E+01 1.14823E+03
 -1       270 1.95047E+04 8.35916E+03 8.35916E+03 5.41900E+03 5.30551E-04 7.69539E+02
 -1       271 2.29583E+04 9.76423E+03 9.81868E+03 7.33340E+03 2.36496E+01-1.95654E+00
 -1       272 2.11579E+04 9.01941E+03 8.88725E+03 6.50641E+03-2.19874E+01-4.16479E+02
 -1       273 2.13079E+04 9.13197E+03 9.13197E+03 6.49221E+03 5.48099E-04 3.71596E+02
 -1       274 2.18052E+04 9.34509E+03 9.34510E+03 6.85944E+03-2.80850E-04-1.44760E+03
 -1       275 2.03781E+04 8.73350E+03 8.73350E+03 6.03635E+03-2.67734E-04-1.00491E+03
 -1       276 2.21798E+04 9.30531E+03 9.24955E+03 6.92506E+03-1.19693E+02 1.21788E+03
 -1       277 2.05318E+04 8.79937E+03 8.79937E+03 6.05240E+03 7.11475E-04 7.36214E+02
 -1       278 1.99763E+04 8.49214E+03 8.34170E+03 5.79229E+03-1.96949E+01 1.66138E+03
 -1       279 1.98642E+04 8.51323E+03 8.51324E+03 5.67358E+03-4.50284E-04-1.87748E+03
 -1       280 1.92180E+04 8.23632E+03 8.23632E+03 5.33610E+03-3.58990E-04-9.41141E+02
 -1       281 1.78636E+04 7.47744E+03 7.60657E+03 4.34483E+03-5.98895E+01-1.25205E+03
 -1       282 1.42954E+04 6.12662E+03 6.12662E+03 2.11310E+03 1.16713E-03 2.23540E+03
 -1       283 1.30108E+04 5.61853E+03 5.68187E+03 1.81229E+03 9.19355E+01 1.87711E+03
 -1       284 1.66063E+04 6.99842E+03 7.08350E+03 2.83077E+03 8.32582E+00 2.86584E+03
 -1       285 1.51887E+04 6.40088E+03 6.43202E+03 2.75551E+03-1.04973E+02 7.73165E+02
 -1       286 1.41152E+04 5.87210E+03 6.00579E+03 2.34242E+03 7.21723E+01 1.48570E+03
 -1       287 1.65507E+04 7.09316E+03 7.09315E+03 3.57591E+03 5.74199E-04 1.31440E+03
 -1       288 1.73834E+04 7.45004E+03 7.45003E+03 4.08961E+03 6.78082E-04 1.81967E+03
 -1       289 1.86533E+04 7.75899E+03 7.82666E+03 4.69577E+03-1.18281E+02 2.53667E+03
 -1       290 1.71877E+04 7.12297E+03 7.20755E+03 3.60722E+03 1.00973E+02 2.61864E+03
 -1       291 2.44099E+04 1.04614E+04 1.04614E+04 7.97912E+03-1.12302E-03 3.66556E+03
 -1       292 2.83496E+04 1.22380E+04 1.24499E+04 8.93147E+03 2.79130E+00 3.26354E+03
 -1       293 2.46800E+04 1.10529E+04 1.07259E+04 7.88978E+03-5.84838E+01 4.39805E+03
 -1       294 2.21055E+04 9.47379E+03 9.47380E+03 6.61798E+03 7.32014E-04 3.04734E+03
 -1       295 2.33406E+04 9.97790E+03 9.94370E+03 7.26580E+03-2.62608E+01 3.68408E+03
 -1       296 2.28382E+04 9.62172E+03 9.57024E+03 7.11851E+03 1.13292E+02 2.34637E+03
 -1       297 2.41810E+04 1.03548E+04 1.02312E+04 7.80324E+03 1.52546E+02 1.66309E+03
 -1       298 2.60356E+04 1.11581E+04 1.11581E+04 8.32374E+03-7.13234E-05 1.07449E+03
 -1       299 2.66714E+04 1.13354E+04 1.11095E+04 8.60447E+03-8.74786E+01 2.15114E+03
 -1       300 2.71297E+04 1.16270E+04 1.16270E+04 8.39623E+03-7.12839E-04-3.73785E+03
 -1       301 2.53724E+04 1.08739E+04 1.08739E+04 7.85083E+03-1.14184E-03-4.27055E+03
 -1       302 2.86896E+04 1.22956E+04 1.22956E+04 8.94698E+03-1.00001E-03-3.16720E+03
 -1       303 2.61105E+04 1.11903E+04 1.11903E+04 8.30078E+03-1.08925E-04-1.10631E+03
 -1       304 2.69922E+04 1.14378E+04 1.11883E+04 8.56618E+03 1.15499E+02-2.15150E+03
 -1       305 2.35595E+04 9.98764E+03 1.00299E+04 7.52266E+03-5.36706E+01-1.68527E+03
 -1       306 2.22874E+04 9.55175E+03 9.55175E+03 7.01249E+03-4.61608E-04-2.26997E+03
 -1       307 2.18390E+04 9.35960E+03 9.35961E+03 6.61515E+03-2.14607E-04-2.82193E+03
 -1       308 2.33279E+04 9.87400E+03 9.76592E+03 7.29110E+03 1.08513E+02-3.42797E+03
 -1       309 1.43021E+04 6.12948E+03 6.12948E+03 2.29910E+03-1.16643E-03-2.17463E+03
 -1       310 1.58394E+04 6.78833E+03 6.78833E+03 2.89600E+03-1.18142E-03-2.68422E+03
 -1       311 1.29545E+04 5.55194E+03 5.55193E+03 1.75196E+03-7.30024E-04-1.71700E+03
 -1       312 1.84986E+04 7.73112E+03 7.84802E+03 4.65900E+03 4.62438E+01-2.56398E+03
 -1       313 1.69640E+04 7.27028E+03 7.27028E+03 3.53526E+03-1.03435E-03-2.52112E+03
 -1       314 1.71687E+04 7.35803E+03 7.35803E+03 3.85846E+03-1.10209E-03-1.82903E+03
 -1       315 1.61266E+04 6.91143E+03 6.91142E+03 3.19661E+03-1.03056E-03-1.26738E+03
 -1       316 1.47176E+04 6.28523E+03 6.26292E+03 2.46621E+03 1.49886E+01-7.98440E+02
 -1       317 1.37603E+04 5.89728E+03 5.89728E+03 2.20496E+03-6.95475E-04-1.38306E+03
 -1       318 2.51511E+04 1.07791E+04 1.07791E+04 7.97277E+03 8.39817E-05-4.03978E+02
 -1       319 2.51052E+04 1.07594E+04 1.07594E+04 7.99431E+03 4.20817E-05 3.63655E+02
 -1       320 2.07268E+04 8.88294E+03 8.88295E+03 6.07246E+03 9.39543E-04 2.53866E+03
 -1       321 1.97820E+04 8.47804E+03 8.47804E+03 5.47107E+03 1.14849E-03 2.52379E+03
 -1       322 1.63264E+04 6.99707E+03 6.99706E+03 2.91636E+03 4.18877E-04 2.78900E+02
 -1       323 1.60125E+04 6.86253E+03 6.86252E+03 2.76404E+03-4.15708E-04-2.69009E+02
 -1       324 1.96238E+04 8.41021E+03 8.41021E+03 5.33707E+03-1.03519E-03-2.38949E+03
 -1       325 2.07839E+04 8.90739E+03 8.90739E+03 6.03732E+03-2.16399E-04-2.45326E+03
 -1       326 1.99000E+04 8.41651E+03 8.42965E+03 5.72444E+03-1.22762E+01 4.30264E+01
 -1       327 2.41504E+04 1.01842E+04 1.00420E+04 7.83869E+03-5.46021E+00-2.73634E+03
 -1       328 1.58974E+04 6.41487E+03 6.59495E+03 3.02167E+03-6.24333E-01-1.90218E+03
 -1       329 1.59840E+04 6.52877E+03 6.62751E+03 3.16795E+03 2.99191E+01 1.97998E+03
 -1       330 2.42169E+04 1.01465E+04 9.92273E+03 7.73535E+03 6.41754E+01 2.73594E+03
 -1       331 1.46297E+04 5.46611E+03 6.01892E+03 2.35790E+03 3.20662E+01-3.49287E+01
 -1       332 1.99608E+04 8.22071E+03 7.94860E+03 5.64526E+03 1.79451E+02-3.45334E+03
 -1       333 2.45651E+04 1.07968E+04 1.06091E+04 8.93731E+03 9.95102E+00 4.82225E+01
 -1       334 1.95719E+04 8.33131E+03 8.07878E+03 5.67273E+03-1.76701E+02 3.50069E+03
 -1       335 2.68712E+04 1.17463E+04 1.16003E+04 8.56985E+03 8.46034E+01 4.60695E+03
 -1       336 2.54670E+04 1.14736E+04 1.09654E+04 9.59841E+03-5.22228E+01-5.36251E+03
 -1       337 1.40258E+04 5.33502E+03 5.70052E+03 1.47591E+03-5.48265E+01 2.61042E+03
 -1       338 1.35592E+04 5.26201E+03 5.56731E+03 1.38353E+03 8.73732E+01-2.69319E+03
 -1       339 2.23962E+04 9.38924E+03 9.28399E+03 7.23317E+03 1.93316E+01-7.78831E+02
 -1       340 1.65870E+04 7.10873E+03 7.10873E+03 3.72676E+03 4.51818E-04 6.30650E+02
 -1       341 1.87311E+04 7.82382E+03 7.84904E+03 4.94166E+03 3.86762E+00-1.47244E+03
 -1       342 2.10407E+04 8.96897E+03 8.87311E+03 6.41568E+03 2.20658E+01 2.02716E+03
 -1       343 2.22589E+04 9.50115E+03 8.81699E+03 6.90227E+03 9.82301E+01 4.80244E+03
 -1       344 2.73214E+04 1.14517E+04 1.16501E+04 9.91661E+03 3.68859E+02 1.84725E+03
 -1       345 1.27764E+04 4.34295E+03 5.11196E+03 1.42668E+03-6.01964E+01 9.61992E+02
 -1       346 2.25458E+04 9.38474E+03 8.53116E+03 7.08383E+03-8.06509E+01-4.52471E+03
 -1       347 1.25295E+04 4.19828E+03 4.97853E+03 1.41707E+03-2.95842E+00-9.57209E+02
 -1       348 1.75269E+04 7.50832E+03 7.46518E+03 4.31343E+03 8.41956E-01-3.66594E+03
 -1       349 2.80854E+04 1.16301E+04 1.18743E+04 9.77961E+03-2.06973E+02-1.66216E+03
 -1       350 1.79134E+04 7.39335E+03 7.40103E+03 4.26678E+03-9.16699E+01 3.81560E+03
 -1       351 1.67243E+04 6.89748E+03 7.08555E+03 3.71116E+03-3.52241E+01-6.03928E+02
 -1       352 1.87249E+04 7.71613E+03 7.68947E+03 4.92486E+03-3.44713E+01 1.81003E+03
 -1       353 2.28487E+04 9.75770E+03 9.76861E+03 7.37900E+03 2.24097E+01 8.49429E+02
 -1       354 2.07922E+04 8.91097E+03 8.91097E+03 6.27271E+03-3.66019E-04-1.76663E+03
 -1       355 1.70259E+04 7.10162E+03 6.85756E+03 2.86574E+03 2.25305E+02 4.14074E+03
 -1       356 3.33440E+04 1.37032E+04 1.39235E+04 1.13313E+04-4.40497E+02-3.62928E+03
 -1       357 1.01359E+04 3.48487E+03 4.06231E+03 3.44871E+02 4.51801E+01-1.56599E+03
 -1       358 1.75246E+04 6.75924E+03 6.48806E+03 2.81410E+03 1.20278E+02-4.26353E+03
 -1       359 2.56173E+04 1.08363E+04 1.04239E+04 7.82558E+03-2.95786E+02-6.60845E+03
 -1       360 1.01483E+04 3.92473E+03 4.24152E+03 3.29162E+02 3.65967E+00 1.54969E+03
 -1       361 2.53523E+04 1.10051E+04 1.01942E+04 7.75866E+03 2.14197E+02 6.76703E+03
 -1       362 3.13427E+04 1.34424E+04 1.36969E+04 1.03322E+04-2.15118E+02 3.16367E+03
 -1       363 1.14554E+04 4.45577E+03 4.75703E+03-4.24723E+02-1.93712E+02 3.43625E+03
 -1       364 3.41228E+04 1.51917E+04 1.50972E+04 1.05385E+04 2.80241E+02-8.45552E+03
 -1       365 3.26723E+04 1.49546E+04 1.44011E+04 1.08092E+04-1.19706E+02 7.89332E+03
 -1       366 1.13718E+04 4.45660E+03 4.73948E+03-4.99572E+02 1.84949E+02-3.43829E+03
 -1       367 7.60666E+03 3.26001E+03 3.26000E+03-1.07610E+03 6.59947E-04 2.20038E+03
 -1       368 1.13641E+04 4.51507E+03 4.21564E+03-1.55457E+03-2.71918E+02 3.18916E+03
 -1       369 1.69422E+04 6.99863E+03 6.70278E+03 4.12550E+02 2.30288E+02 4.77826E+03
 -1       370 1.14008E+04 4.52225E+03 4.21968E+03-1.60088E+03 2.77436E+02-3.18781E+03
 -1       371 7.53815E+03 3.23065E+03 3.23064E+03-1.10744E+03-5.56275E-04-2.18483E+03
 -1       372 1.69207E+04 7.02485E+03 6.67279E+03 3.37476E+02-2.14481E+02-4.78284E+03
 -1       373 3.58334E+04 1.51296E+04 1.36163E+04 8.68734E+03-5.91302E+02 9.36939E+03
 -1       374 4.99142E+04 1.94702E+04 1.95619E+04 1.24682E+04 1.01006E+03 1.09081E+04
 -1       375 4.36228E+04 1.67523E+04 1.81585E+04 1.25472E+04-7.25272E+02 5.96640E+03
 -1       376 4.91961E+04 2.10841E+04 2.10841E+04 1.53403E+04 4.45726E-03-7.66472E+03
 -1       377 5.30312E+04 2.05184E+04 2.07691E+04 1.28508E+04-1.12219E+03-1.15962E+04
 -1       378 3.96882E+04 1.70093E+04 1.70093E+04 9.50632E+03 2.15892E-03-1.16054E+04
 -1       379 7.08833E+03 2.76173E+03 2.95931E+03-6.00023E+02 1.01997E+02-1.74145E+03
 -1       380 6.81613E+03 2.72648E+03 2.90394E+03-6.07164E+02-8.45637E+01-1.12717E+03
 -1       381 9.62812E+03 4.11300E+03 4.08892E+03-2.79547E+02-5.83799E+01-2.13867E+03
 -1       382 1.21872E+04 4.62087E+03 5.14872E+03 9.19520E+02-9.62416E+01-1.95667E+03
 -1       383 1.23881E+04 4.95289E+03 5.07728E+03 4.75821E+02 1.58286E+02-2.90117E+03
 -1       384 8.40668E+03 3.60288E+03 3.60287E+03-2.73971E+02 1.27395E-04-9.33075E+02
 -1       385 7.91939E+03 3.16814E+03 3.32482E+03 1.25977E+02-8.68143E+01-4.12598E+02
 -1       386 1.14630E+04 4.38416E+03 4.71868E+03 7.61561E+02 1.22293E+02-1.29299E+03
 -1       387 7.96586E+03 3.17467E+03 3.36864E+03 1.26332E+02 8.56525E+01 3.86949E+02
 -1       388 8.50593E+03 3.65229E+03 3.59665E+03-2.97899E+02 4.31507E+01 9.37995E+02
 -1       389 9.58501E+03 4.10788E+03 4.10788E+03 5.05099E+02 6.49414E-05 2.75791E+00
 -1       390 1.37414E+04 4.99535E+03 5.62238E+03 1.96246E+03-1.34637E+02 5.05517E+02
 -1       391 1.35697E+04 4.89179E+03 5.49436E+03 1.94007E+03 1.76002E+02-5.23572E+02
 -1       392 6.52053E+03 2.79452E+03 2.79452E+03-6.40685E+02 2.58458E-04 1.22516E+03
 -1       393 6.90769E+03 2.96045E+03 2.96045E+03-6.90616E+02 1.51503E-05 1.65957E+03
 -1       394 1.15078E+04 4.39892E+03 4.75614E+03 7.84377E+02-1.09640E+02 1.26541E+03
 -1       395 1.24067E+04 4.74312E+03 5.32648E+03 9.29042E+02 9.56341E+01 1.91723E+03
 -1       396 9.89297E+03 4.20048E+03 4.10715E+03-2.49196E+02 5.60550E+00 2.11577E+03
 -1       397 1.26477E+04 5.03731E+03 5.19320E+03 5.71987E+02-1.64341E+02 2.93632E+03
 -1       398 2.06180E+04 8.81608E+03 8.19125E+03 1.36475E+03-1.77997E+02 5.32606E+03
 -1       399 2.30208E+04 9.86608E+03 9.86609E+03 2.59621E+03 1.18618E-03 6.71398E+03
 -1       400 1.66903E+04 7.15300E+03 7.15300E+03 1.17878E+03 9.81514E-04 4.20018E+03
 -1       401 1.53104E+04 6.40289E+03 6.24117E+03 2.11264E+03 1.20839E+02 3.32529E+03
 -1       402 2.29589E+04 9.56616E+03 9.77951E+03 3.59343E+03 3.01267E+01 6.28451E+03
 -1       403 2.35657E+04 1.00996E+04 1.00996E+04 4.65994E+03-1.18658E-04 6.32975E+03
 -1       404 1.69525E+04 7.16847E+03 7.00843E+03 3.41677E+03-6.52038E+01 3.90561E+03
 -1       405 2.63209E+04 1.13315E+04 1.06480E+04 5.94914E+03-1.98608E+02 6.73980E+03
 -1       406 2.85401E+04 1.22315E+04 1.22315E+04 6.72949E+03 1.14723E-03 8.06725E+03
 -1       407 2.35469E+04 9.93017E+03 1.00432E+04 5.54723E+03 9.96078E+01 5.81898E+03
 -1       408 2.12763E+04 8.97323E+03 8.37497E+03 6.23496E+03 7.85701E+01 4.04805E+03
 -1       409 1.87479E+04 7.94740E+03 7.85542E+03 5.23492E+03-5.52414E+01 3.72466E+03
 -1       410 3.24854E+04 1.39915E+04 1.33530E+04 6.75847E+03-2.05872E+02 9.47078E+03
 -1       411 3.15325E+04 1.31178E+04 1.24972E+04 7.71771E+03 3.79279E+02 9.09044E+03
 -1       412 2.40812E+04 1.01062E+04 9.63295E+03 7.10937E+03 1.39880E+02 5.69342E+03
 -1       413 2.57723E+04 1.13912E+04 1.09092E+04 8.02043E+03 8.35194E+01 5.50110E+03
 -1       414 2.88031E+04 1.23442E+04 1.23442E+04 8.29804E+03 1.32643E-03 7.00837E+03
 -1       415 3.09883E+04 1.32807E+04 1.32807E+04 9.27248E+03 1.14807E-03 5.94127E+03
 -1       416 5.02741E+04 2.07111E+04 2.13603E+04 1.55981E+04 3.50311E+02-2.23394E+03
 -1       417 4.80173E+04 2.05789E+04 2.05789E+04 1.57208E+04-8.20320E-04-3.53106E+03
 -1       418 2.79809E+04 1.22232E+04 1.21902E+04 1.01401E+04-1.15384E+02-4.50513E+03
 -1       419 4.07630E+04 1.72972E+04 1.68979E+04 1.34429E+04 3.30372E+01-5.10992E+03
 -1       420 2.43555E+04 1.10151E+04 1.07128E+04 9.24711E+03 2.29508E+02-6.22869E+03
 -1       421 4.20977E+04 1.70270E+04 1.80549E+04 1.27358E+04 3.40701E+02-3.49687E+02
 -1       422 4.31728E+04 1.85027E+04 1.85027E+04 1.39653E+04-6.99527E-04-1.88963E+03
 -1       423 3.09830E+04 1.25375E+04 1.28903E+04 1.03642E+04-2.48942E+02-2.32298E+03
 -1       424 4.33461E+04 1.83896E+04 1.81062E+04 1.43347E+04 1.28460E+02 2.13203E+03
 -1       425 4.20899E+04 1.68606E+04 1.80504E+04 1.28528E+04-3.68707E+02 3.49971E+02
 -1       426 2.67253E+04 1.11692E+04 1.13805E+04 9.36269E+03 3.92617E+01 6.06292E+02
 -1       427 3.68474E+04 1.57918E+04 1.57918E+04 1.15712E+04 5.42872E-05-5.44087E+00
 -1       428 2.67481E+04 1.11964E+04 1.14202E+04 9.35652E+03-2.05413E+01-5.10234E+02
 -1       429 4.45698E+04 1.76789E+04 1.85034E+04 1.31371E+04 5.42471E+02 4.62472E+03
 -1       430 4.75424E+04 2.03754E+04 2.03753E+04 1.50805E+04-2.86162E-03 3.33270E+03
 -1       431 2.74030E+04 1.20140E+04 1.18085E+04 9.83357E+03-4.69846E+01 2.21025E+03
 -1       432 3.56941E+04 1.52975E+04 1.52975E+04 1.07068E+04 1.03911E-03 5.10572E+03
 -1       433 2.98591E+04 1.27448E+04 1.28561E+04 9.49729E+03 8.15764E+00 3.85532E+03
 -1       434 2.41107E+04 1.01341E+04 9.78825E+03 3.17488E+03-2.41750E+02-6.81005E+03
 -1       435 2.07912E+04 8.63677E+03 7.99553E+03 1.40816E+03 3.18890E+02-5.46725E+03
 -1       436 1.55154E+04 6.51677E+03 6.29416E+03 2.00459E+03-1.05905E+02-3.27992E+03
 -1       437 1.67083E+04 7.16071E+03 7.16072E+03 1.07896E+03-9.14947E-04-4.22505E+03
 -1       438 2.32432E+04 9.96138E+03 9.96140E+03 4.63291E+03-7.72739E-04-6.16068E+03
 -1       439 2.23870E+04 9.59443E+03 9.59445E+03 3.70296E+03 3.55495E-04-5.91634E+03
 -1       440 1.77206E+04 7.49851E+03 7.15413E+03 3.65284E+03 6.60435E+01-3.96521E+03
 -1       441 2.87107E+04 1.23046E+04 1.23046E+04 6.74528E+03-8.97710E-04-8.05419E+03
 -1       442 2.64679E+04 1.13858E+04 1.07031E+04 5.97009E+03 1.92305E+02-6.72858E+03
 -1       443 2.15923E+04 8.98634E+03 8.21224E+03 6.38852E+03-1.18155E+02-3.84988E+03
 -1       444 2.37705E+04 9.94975E+03 1.01153E+04 5.52785E+03-7.55698E+01-5.89211E+03
 -1       445 1.82545E+04 7.75005E+03 7.70052E+03 5.09398E+03 4.86418E+01-3.58859E+03
 -1       446 3.39254E+04 1.45395E+04 1.45395E+04 7.14524E+03-8.39788E-04-1.02886E+04
 -1       447 3.21364E+04 1.38368E+04 1.32300E+04 6.73143E+03 2.20242E+02-9.31718E+03
 -1       448 2.40834E+04 1.00590E+04 9.66417E+03 7.20203E+03-1.65993E+02-5.57584E+03
 -1       449 3.35614E+04 1.41475E+04 1.43091E+04 8.35823E+03 1.01905E+02-9.18883E+03
 -1       450 2.58392E+04 1.11786E+04 1.07599E+04 8.45689E+03-1.76607E+01-5.82467E+03
 -1       451 2.11913E+04 9.00473E+03 8.90146E+03 6.43786E+03-4.77401E+01-3.52803E+02
 -1       452 2.26062E+04 9.63127E+03 9.65152E+03 7.31320E+03 4.60749E+01 9.58777E+01
 -1       453 2.14913E+04 9.21059E+03 9.21059E+03 6.57730E+03 5.06752E-05 4.92116E+02
 -1       454 2.04009E+04 8.74326E+03 8.74326E+03 6.00270E+03-2.52205E-04-9.02923E+02
 -1       455 2.15944E+04 9.25478E+03 9.25478E+03 6.68241E+03-2.91552E-04-1.31011E+03
 -1       456 1.82480E+04 7.82061E+03 7.82061E+03 4.68475E+03 3.27562E-04 3.40913E+02
 -1       457 1.67122E+04 7.16239E+03 7.16239E+03 3.72472E+03 3.45109E-04 2.74778E+01
 -1       458 1.83733E+04 7.87427E+03 7.87427E+03 4.68271E+03 1.71828E-04-2.62258E+02
 -1       459 1.93532E+04 8.11919E+03 8.20036E+03 5.33883E+03-6.13870E+01 8.64614E+02
 -1       460 1.76357E+04 7.55816E+03 7.55816E+03 4.29307E+03 4.44995E-04 1.09094E+03
 -1       461 1.77245E+04 7.57815E+03 7.51833E+03 4.29972E+03-1.97633E+01-9.98946E+02
 -1       462 1.93773E+04 8.17456E+03 8.21608E+03 5.33577E+03 6.03198E+01-6.92661E+02
 -1       463 1.99035E+04 8.53010E+03 8.53010E+03 5.67522E+03-3.50207E-04-1.62509E+03
 -1       464 2.06443E+04 8.84758E+03 8.84758E+03 6.12788E+03 2.42440E-04 1.00367E+03
 -1       465 1.99321E+04 8.49146E+03 8.36981E+03 5.73696E+03 3.15867E+01 1.96891E+03
 -1       466 2.21037E+04 9.47304E+03 9.47305E+03 6.89837E+03 1.36078E-04 1.39800E+03
 -1       467 2.84112E+04 1.21763E+04 1.21763E+04 8.96426E+03-3.11542E-04-3.14536E+03
 -1       468 2.69946E+04 1.15692E+04 1.15692E+04 8.39667E+03-3.97166E-04-3.85519E+03
 -1       469 2.48991E+04 1.06711E+04 1.06711E+04 7.76944E+03-7.93336E-04-4.28820E+03
 -1       470 2.68159E+04 1.14138E+04 1.11820E+04 8.66421E+03 8.60239E+01-2.11955E+03
 -1       471 2.59236E+04 1.11102E+04 1.11102E+04 8.25812E+03-7.65065E-05-1.03132E+03
 -1       472 2.35055E+04 9.83500E+03 9.91689E+03 7.51835E+03-1.05679E+02-1.73484E+03
 -1       473 2.22721E+04 9.54520E+03 9.54520E+03 6.96232E+03-4.52750E-04-2.15407E+03
 -1       474 2.16588E+04 9.28237E+03 9.28237E+03 6.57843E+03-4.56299E-04-2.71003E+03
 -1       475 2.34402E+04 9.95369E+03 9.68911E+03 7.41413E+03 1.57325E+02-3.42004E+03
 -1       476 1.49275E+04 6.39752E+03 6.39752E+03 2.11645E+03-1.46375E-03-2.25008E+03
 -1       477 1.32263E+04 5.66843E+03 5.66843E+03 1.72662E+03-1.04122E-03-1.77571E+03
 -1       478 1.66730E+04 6.65660E+03 6.99252E+03 2.92242E+03 6.14587E+01-2.84835E+03
 -1       479 1.72478E+04 7.39192E+03 7.39192E+03 3.73824E+03-1.48792E-03-2.72960E+03
 -1       480 1.86084E+04 7.97507E+03 7.97507E+03 4.57842E+03-1.30228E-03-2.52551E+03
 -1       481 1.73975E+04 7.45608E+03 7.45608E+03 4.04849E+03-1.28759E-03-1.74872E+03
 -1       482 1.63486E+04 6.74096E+03 6.90529E+03 3.42445E+03 5.49031E+01-1.24287E+03
 -1       483 1.50031E+04 6.42995E+03 6.42994E+03 2.71083E+03-9.05198E-04-8.18370E+02
 -1       484 1.42553E+04 5.83493E+03 5.99513E+03 2.27085E+03-1.27717E+02-1.45824E+03
 -1       485 1.48789E+04 6.37671E+03 6.37671E+03 2.30066E+03 1.23910E-03 2.30127E+03
 -1       486 1.65776E+04 7.10470E+03 7.10469E+03 2.81889E+03 1.15725E-03 2.86158E+03
 -1       487 1.32860E+04 5.69402E+03 5.69401E+03 1.86270E+03 7.41826E-04 1.81631E+03
 -1       488 1.45606E+04 5.99310E+03 6.13673E+03 2.53681E+03 1.10293E+02 1.53033E+03
 -1       489 1.49914E+04 6.42491E+03 6.42491E+03 2.87436E+03 5.65349E-04 8.02453E+02
 -1       490 1.61766E+04 6.93283E+03 6.93283E+03 3.51578E+03 5.58456E-04 1.21738E+03
 -1       491 1.75137E+04 7.35732E+03 7.19515E+03 4.09851E+03-1.02508E+02 1.85540E+03
 -1       492 1.86969E+04 8.01297E+03 8.01298E+03 4.72396E+03 1.35032E-03 2.78046E+03
 -1       493 1.75751E+04 7.17862E+03 7.51991E+03 3.71957E+03 6.61226E+01 2.78331E+03
 -1       494 2.50663E+04 1.07427E+04 1.07427E+04 7.65178E+03-1.65296E-05 4.32260E+03
 -1       495 2.63043E+04 1.12733E+04 1.12733E+04 8.22287E+03-8.96973E-04 3.67714E+03
 -1       496 2.83903E+04 1.21673E+04 1.21673E+04 8.92398E+03-2.77919E-04 3.03662E+03
 -1       497 2.34316E+04 1.00570E+04 1.00414E+04 7.20918E+03 2.65419E+00 3.69922E+03
 -1       498 2.21716E+04 9.50212E+03 9.50213E+03 6.58282E+03 9.46313E-04 3.24192E+03
 -1       499 2.24485E+04 9.48997E+03 9.27092E+03 7.05564E+03 6.89939E+01 2.38982E+03
 -1       500 2.37387E+04 1.00285E+04 1.00994E+04 7.61538E+03 5.03946E+01 1.61377E+03
 -1       501 2.63515E+04 1.12935E+04 1.12935E+04 8.36396E+03 3.63356E-04 1.13599E+03
 -1       502 2.70831E+04 1.16109E+04 1.13341E+04 8.62744E+03-4.60194E+01 2.13111E+03
 -1       503 1.55956E+04 6.68387E+03 6.68386E+03 3.15989E+03 4.69436E-04 2.81060E+02
 -1       504 1.56906E+04 6.60682E+03 6.67695E+03 3.07374E+03-6.44572E+01-3.21726E+02
 -1       505 1.95746E+04 8.25884E+03 8.29908E+03 5.32954E+03-5.76860E+01-2.25467E+03
 -1       506 2.05402E+04 8.80298E+03 8.80298E+03 5.98731E+03-3.93102E-04-2.34061E+03
 -1       507 2.42491E+04 1.03925E+04 1.03925E+04 7.85712E+03-2.17976E-04-3.37477E+02
 -1       508 2.45912E+04 1.05391E+04 1.05391E+04 7.95087E+03 1.04843E-04 4.30792E+02
 -1       509 2.06495E+04 8.84980E+03 8.84981E+03 6.04172E+03 8.96878E-04 2.64370E+03
 -1       510 1.94863E+04 8.35131E+03 8.35131E+03 5.34399E+03 1.09574E-03 2.55094E+03
 -1       511 2.08320E+04 5.69047E+01-6.19010E+02 1.57889E+02 3.13841E+00 1.40981E+01
 -1       512 1.21756E+04-1.72743E+02-6.44009E+02 6.04854E+02 1.79700E+02-1.06885E+03
 -1       513 2.89534E+04-3.63607E+02 1.35383E+03 3.50719E+02 6.51002E+01 5.39482E+02
 -1       514 2.82884E+04-1.34789E+02 1.00382E+03-2.99987E+02-5.50312E+00-4.94717E+02
 -1       515 1.16635E+04-2.07565E+02-6.88930E+02 6.11765E+02-1.46378E+02 1.15976E+03
 -1       516 3.25182E+04-2.60009E+03 3.33684E+03 4.54362E+02-2.71365E+01-1.25079E+01
 -1       517 2.01002E+04-3.41630E+01-3.88759E+02 1.91844E+02 1.16209E+02-8.42518E+02
 -1       518 9.14033E+03-1.61578E+03-1.36013E+03 1.17469E+03-1.28336E+01 2.39026E+00
 -1       519 2.02500E+04 5.32388E+00-4.70272E+02 1.57358E+02-1.03285E+02 7.98551E+02
 -1       520 8.02202E+03-7.89316E+02-4.20268E+02 8.87655E+02-1.65507E+02 1.62366E+03
 -1       521 7.79434E+03-9.67582E+02-5.35002E+02 8.70092E+02 1.40596E+02-1.66457E+03
 -1       522 3.57598E+04-3.00639E+03 1.80010E+03 6.57075E+02-1.38590E+02-2.34165E+03
 -1       523 3.25954E+04-8.77052E+02 1.45659E+03-4.09392E+02 1.99719E+02 2.36717E+03
 -1       524 1.48132E+04-5.45874E+01-9.63765E+02 2.99403E+02 3.03623E+01-3.74388E+02
 -1       525 2.74478E+04-5.27479E+02 1.22312E+03 2.02706E+02-6.94193E+01-1.94523E+02
 -1       526 2.33136E+04-2.80165E+02-1.03002E+02 2.91291E+02 6.58826E+01-2.64788E+02
 -1       527 1.76637E+04-2.00142E+02-7.52091E+02 6.35079E+02-1.33462E+02 6.50466E+02
 -1       528 7.04409E+03-7.62840E+02-4.90358E+02 6.13490E+02 1.28183E+01 8.22647E+02
 -1       529 1.52810E+04-1.04477E+02-3.76003E+02 2.63555E+02-1.77975E+02 9.28611E+02
 -1       530 3.55863E+04-3.11671E+03 5.46640E+03 1.64062E+03 2.52995E+02-9.55909E+02
 -1       531 1.49835E+04-2.66895E+01-4.04835E+02 3.17244E+02 1.29082E+02-9.31233E+02
 -1       532 3.63133E+04-3.56542E+03 5.34630E+03 1.68736E+03-2.68505E+02 1.00053E+03
 -1       533 2.44085E+04-1.77472E+02-1.54303E+02 4.95530E+01 1.51746E+02-5.43618E+02
 -1       534 7.09251E+03-7.72250E+02-4.73106E+02 6.33832E+02 3.92018E+01-7.93689E+02
 -1       535 2.47018E+04-1.81796E+02-1.18027E+02-2.42993E+01-1.44568E+02 5.25889E+02
 -1       536 2.71350E+04-3.84302E+02 1.16237E+03 2.69772E+02 4.64362E+01 1.20924E+02
 -1       537 2.36281E+04-3.86904E+02-2.17487E+02 2.24036E+02-1.37674E+02 3.11218E+02
 -1       538 1.36955E+04-3.23998E+01-8.99456E+02 3.31811E+02-5.82604E+01 4.23909E+02
 -1       539 1.81951E+04-1.16724E+02-7.43649E+02 4.56315E+02 1.02985E+02-5.92738E+02
 -1       540 2.81709E+04-4.56520E+02-1.19784E+02-1.28310E+02-2.23100E+02-1.03800E+02
 -1       541 4.81861E+03-3.62443E+02-2.73598E+01 2.47064E+02-1.21383E+01-1.46546E+03
 -1       542 3.89812E+04-3.37060E+03 6.52938E+03 1.35667E+03-2.32584E+02 2.51084E+03
 -1       543 2.81538E+04-3.40760E+02-1.74979E+02-7.11198E+01 2.24866E+02-1.11782E+02
 -1       544 1.14659E+04-1.04025E+02-2.27924E+02 3.67496E+02 1.47049E+02-9.50298E+02
 -1       545 4.03034E+04-2.75128E+03 6.81400E+03 2.43272E+03-1.82381E+02-2.67127E+03
 -1       546 5.21169E+03-8.28401E+02-8.93103E+00 4.38900E+02-4.33721E+01 1.45123E+03
 -1       547 1.13761E+04-1.60099E+02-2.81393E+02 5.24008E+02-1.45563E+02 9.12468E+02
 -1       548 4.47073E+04-1.87074E+03 3.26019E+03 3.02775E+03 8.44889E+01-4.62386E+03
 -1       549 6.77450E+03-8.40276E+02 4.55803E+01 4.01912E+02 6.45718E+00-1.76413E+03
 -1       550 6.69585E+03-8.82761E+02 1.91685E+01 4.54529E+02-3.47451E+01 1.71182E+03
 -1       551 4.38748E+04-3.43193E+03 2.86296E+03 9.69068E+02 8.25844E+01 5.60467E+03
 -1       552 5.29912E+04 1.01210E+04 1.45984E+04 1.07650E+04-5.86649E+00-4.86415E+03
 -1       553 5.68936E+04 6.48790E+03 1.12557E+04 7.78572E+03-1.80303E+03-8.24946E+03
 -1       554 3.49105E+04-9.59552E+02-7.28206E+02-2.26384E+02 8.13574E+02-9.83734E+02
 -1       555 5.81016E+04 6.18750E+03 1.17610E+04 7.29677E+03 1.66927E+03 9.24029E+03
 -1       556 5.15684E+04 4.04566E+03 1.26409E+04 7.12993E+03-5.03326E+02 4.69256E+03
 -1       557 3.33879E+04-2.53517E+03-1.13505E+03-8.67634E+02-4.81194E+02 1.36623E+03
 -1       558 8.68595E+03 1.16640E+03 1.28552E+03-9.77547E+02-4.31822E+02 2.05232E+03
 -1       559 4.56249E+03-1.69071E+02 7.21565E+02-2.42026E+02 1.44854E+01 1.71351E+03
 -1       560 6.79214E+03-5.50982E+02-4.89435E+02 7.33172E+02 1.77508E+02 8.24951E+02
 -1       561 4.64742E+03-1.24631E+02 7.75511E+02-2.90204E+02-7.56085E+00-1.74031E+03
 -1       562 8.83163E+03 1.21612E+03 1.34157E+03-1.02119E+03 4.46616E+02-2.09083E+03
 -1       563 6.77881E+03-6.01509E+02-5.02052E+02 7.06709E+02-2.09676E+02-8.23452E+02
 -1       564 4.99150E+04 5.45141E+03 1.39496E+04 7.68264E+03 5.21743E+02 4.41277E+03
 -1       565 4.96675E+04 5.31383E+03 1.49838E+04 8.15582E+03-2.68178E+02 1.72346E+03
 -1       566 4.45344E+04 1.92822E+03 9.12979E+03 4.25135E+03 8.37169E+01 3.78314E+03
 -1       567 3.55711E+04-5.31442E+02 4.46480E+03 8.92434E+02-2.37122E+02 2.66416E+03
 -1       568 3.53393E+04-1.18920E+03 9.96766E+02-2.67105E+02 3.27746E+02 3.54806E+03
 -1       569 4.68867E+04 5.56890E+03 1.41383E+04 8.16309E+03-7.24686E+02 9.76576E+02
 -1       570 4.73281E+04 8.65152E+03 1.41735E+04 9.24397E+03-4.86631E+02 6.19638E+02
 -1       571 3.70818E+04-4.37224E+03 5.78280E+03 6.33556E+02-3.56743E+01 1.09319E+03
 -1       572 4.69068E+04 8.38629E+03 1.41238E+04 8.95992E+03 5.45266E+02-5.42522E+02
 -1       573 4.69630E+04 6.28642E+03 1.37719E+04 8.48136E+03 5.68643E+02-1.11526E+03
 -1       574 4.43306E+04 8.14851E+03 1.17283E+04 7.78902E+03 2.85662E+01-2.21421E+01
 -1       575 3.46050E+04-1.99143E+03 4.63132E+03 1.55673E+03 2.80945E+02-3.16934E+02
 -1       576 3.46186E+04-1.99879E+03 4.64150E+03 1.50297E+03-3.44644E+02 2.92458E+02
 -1       577 5.23767E+04 1.02552E+04 1.64580E+04 1.05656E+04 8.56711E-02-2.37270E+03
 -1       578 4.86449E+04 4.74462E+03 1.42403E+04 7.77770E+03-2.98481E+02-4.19888E+03
 -1       579 3.68864E+04-3.12729E+03 6.24744E+03 1.84251E+03-3.70513E+01-1.46212E+03
 -1       580 3.77260E+04-3.42421E+03 3.84804E+03 1.09825E+03 1.83201E+01-3.02312E+03
 -1       581 4.63437E+04 5.83881E+03 1.15841E+04 7.27550E+03-6.54528E+01-4.10954E+03
 -1       582 3.89637E+04-2.26252E+03 2.41891E+03 1.97677E+03 6.63221E+01-3.16988E+03
 -1       583 3.21821E+03-1.39159E+02 2.50722E+02-2.54746E+02-1.76535E+01-1.16935E+03
 -1       584 3.61602E+03-4.39892E+00 4.12226E+02-2.78781E+02 2.82293E+01-1.61658E+03
 -1       585 6.42573E+03-5.26020E+02-1.73510E+02 4.81393E+02-1.21843E+02-1.48253E+03
 -1       586 5.22063E+03-6.08768E+02 2.16800E+02 1.79233E+02 7.55546E+01-1.78523E+03
 -1       587 6.81883E+03-1.13006E+03-3.55431E+02 7.03772E+02 1.16157E+02-1.66670E+03
 -1       588 4.06004E+03-5.39281E+02-1.46805E+02 2.88892E+02-8.06743E+01-4.75435E+02
 -1       589 3.92473E+03-8.12810E+02-2.12119E+02 1.92244E+02 2.43449E+01-8.66222E+02
 -1       590 5.81373E+03-4.73397E+02-2.79019E+02 4.83053E+02 1.15079E+02-1.12086E+03
 -1       591 4.02601E+03-6.12988E+02-1.52441E+02 1.90999E+02 7.10774E+01 9.09878E+02
 -1       592 4.10189E+03-4.55387E+02-1.42486E+02 2.49998E+02 8.20071E+01 4.92430E+02
 -1       593 8.20449E+03-8.66092E+02-8.80776E+02 7.62459E+02-2.04463E+02 5.73242E+02
 -1       594 5.35298E+03-1.11063E+03-5.45848E+02 5.72006E+02-6.50185E+00 4.07135E+00
 -1       595 8.21207E+03-8.98438E+02-8.61839E+02 7.83779E+02 2.25754E+02-5.73347E+02
 -1       596 3.84127E+03-1.65926E+02 4.53978E+02-1.91498E+02-9.20182E+01 1.61949E+03
 -1       597 3.51918E+03-2.27398E+02 3.56007E+02-1.70839E+02 2.56434E+01 1.18454E+03
 -1       598 5.81966E+03-8.76812E+02-2.81220E+02 6.73751E+02-2.40078E+01 1.00592E+03
 -1       599 5.29496E+03-4.55679E+02 3.11221E+02 2.27079E+02-1.11467E+02 1.72460E+03
 -1       600 6.55667E+03-8.65583E+02-2.73745E+02 6.40970E+02-9.41180E+01 1.64602E+03
 -1       601 6.86155E+03-1.06762E+03-3.77346E+02 7.33494E+02-1.33453E+02 1.60896E+03
 -1       602 2.53872E+04 1.15826E+02-1.45911E+02-5.20931E+00 2.21809E+01-2.27717E+02
 -1       603 2.89827E+04-2.82062E+02-1.09227E+02-1.34866E+01 5.44065E+02-8.37216E+01
 -1       604 3.10128E+04-2.74835E+02 9.54465E+02 1.14750E+02 2.06003E+02 1.19156E+03
 -1       605 3.15474E+04-6.61870E+02 5.38146E+02-3.55793E+02 1.74308E+02 5.98875E+02
 -1       606 2.12225E+04 7.25906E+01-7.62089E+01 1.04302E+02 9.39129E+01-5.03899E+02
 -1       607 2.34966E+04-4.25687E+01-1.29263E+02 3.39661E+01 7.82422E+01-4.72068E+02
 -1       608 2.61092E+04-4.21121E+02-2.42545E+02-2.50398E+01 9.42013E+01-3.31742E+02
 -1       609 1.40639E+04 1.13385E+02-1.56359E+02 1.92083E+02 7.23192E+01-6.52319E+02
 -1       610 1.67403E+04 5.62398E+01-1.33505E+02 1.85305E+02 2.95253E+01-6.85925E+02
 -1       611 1.74780E+04-8.25456E+01-3.71154E+02 2.59257E+02 8.49462E+01-8.90214E+02
 -1       612 1.89620E+04-2.84748E+01-2.22519E+02 1.72589E+02 4.69673E+01-7.08359E+02
 -1       613 2.22016E+04 9.14208E+01-1.93923E+02 1.13621E+02 1.43191E+02-6.69480E+02
 -1       614 1.00410E+04 1.55932E+02-7.67564E+01 3.02773E+02 1.82205E+02-6.19523E+02
 -1       615 1.20925E+04-1.01892E+02-1.58541E+02 2.16208E+02 2.48465E+01-5.93116E+02
 -1       616 1.31130E+04-9.38577E+01-3.52409E+02 3.35227E+02 1.50089E+02-9.24388E+02
 -1       617 7.95050E+03-4.81126E+01-1.90553E+02 5.27887E+02 1.80139E+02-1.06478E+03
 -1       618 9.48867E+03-1.79422E+02-2.44219E+02 5.98219E+02 1.07263E+02-1.35541E+03
 -1       619 2.89070E+04-1.96615E+02-5.20670E+01 1.44801E+02-2.39946E+02 2.49339E+01
 -1       620 2.50769E+04-1.67726E+02-2.72833E+02-9.87630E+01-1.86524E+01 2.03412E+02
 -1       621 3.18691E+04-9.96508E+01 9.71318E+02 1.96217E+02-4.17070E+02-8.70846E+02
 -1       622 3.03822E+04-8.52043E+02 7.83844E+02-1.66099E+02-2.43050E+02-1.13545E+03
 -1       623 2.39161E+04 8.21432E+01-2.08834E+01-6.18373E+01-3.85495E+01 4.40784E+02
 -1       624 2.13732E+04 8.69267E+01-9.74036E+01 1.17464E+02-1.16453E+02 4.75815E+02
 -1       625 2.57487E+04-6.61593E+02-4.45300E+02-2.64612E+02-8.61854E+01 2.00253E+02
 -1       626 1.67516E+04-7.55194E+00-1.09456E+02 1.85785E+02-2.65718E+01 6.83649E+02
 -1       627 1.39755E+04 4.59081E+01-2.23011E+02 1.89929E+02-1.06079E+02 6.60817E+02
 -1       628 1.91643E+04 1.78432E+01-2.37161E+02 1.39022E+02-5.33551E+01 6.93157E+02
 -1       629 1.77144E+04-1.29935E+02-5.11642E+02 2.22571E+02-1.30821E+02 8.55877E+02
 -1       630 2.22908E+04 7.78444E+01-2.22007E+02 8.83688E+01-1.77287E+02 6.92187E+02
 -1       631 1.21203E+04-9.80796E+01-1.77685E+02 2.47956E+02-2.84460E+01 6.06595E+02
 -1       632 1.00931E+04 1.49787E+02-7.13901E+01 3.82866E+02-1.54064E+02 6.30399E+02
 -1       633 1.30049E+04-2.01140E+02-4.04524E+02 4.12907E+02-1.55247E+02 8.81857E+02
 -1       634 9.77367E+03-1.76162E+02-2.13203E+02 6.90946E+02-1.29758E+02 1.32127E+03
 -1       635 8.12214E+03-1.28901E+01-1.82334E+02 5.81752E+02-1.70836E+02 1.05122E+03
 -1       636 1.80086E+04 1.10882E+02-7.35388E+02 1.83831E+02 4.18738E+01-1.52749E+02
 -1       637 1.43017E+04-5.52247E+01-9.01038E+02 2.82269E+02-1.73549E+01 2.46977E+01
 -1       638 1.74851E+04 1.37653E+02-6.78969E+02 2.40642E+02-4.49345E+01 1.85931E+02
 -1       639 1.95115E+04-5.74864E+01-7.09459E+02 2.89470E+02 8.09794E+01-2.67969E+02
 -1       640 1.67414E+04 1.20353E+02-7.86745E+02 2.17344E+02 6.61872E+01-3.68198E+02
 -1       641 2.40103E+04 1.52953E+02 2.70790E+02 1.58258E+02-4.65930E+01-2.28074E+01
 -1       642 2.69982E+04-4.71282E+02 1.12239E+03 1.95725E+02 3.74599E+01 4.18769E+01
 -1       643 2.40794E+04 1.98212E+02 2.57614E+02 1.77768E+02 8.25271E+01 4.45155E+01
 -1       644 2.21669E+04 2.68378E+01-2.74003E+02 1.76416E+02-9.05946E+00 1.03562E+02
 -1       645 2.53636E+04-4.45691E+02 3.48075E+02 2.65346E+02-2.23638E+02-4.77642E+01
 -1       646 2.51328E+04-3.61540E+02 4.24421E+02 3.17484E+02 1.30986E+02-5.78340E+01
 -1       647 2.21113E+04 6.59979E+01-2.73618E+02 1.72923E+02 9.26688E+00-9.78032E+01
 -1       648 2.05571E+04-1.94630E+02-4.83345E+02 3.30135E+02 6.05720E+01-4.37624E+02
 -1       649 1.92748E+04-7.20995E+01-7.19031E+02 3.27636E+02-9.05733E+01 2.66444E+02
 -1       650 2.02562E+04-3.32512E+02-5.91805E+02 3.34758E+02-1.28682E+02 4.91509E+02
 -1       651 1.59783E+04 1.22576E+02-7.41943E+02 3.29037E+02-9.31933E+01 4.05910E+02
 -1       652 8.30200E+03 7.78828E+00-3.50074E+02 3.32088E+02-1.39647E+01-1.33978E+03
 -1       653 9.47892E+03-3.20662E+02-7.17889E+02 6.18037E+02 3.91558E+01-1.24693E+03
 -1       654 1.16477E+04-9.05966E+01-4.84034E+02 5.09504E+02 1.31291E+02-1.08541E+03
 -1       655 9.45922E+03-2.33146E+02-5.11791E+02 4.87282E+02 4.94079E+01-9.77105E+02
 -1       656 1.07995E+04-6.37616E+01-7.76252E+02 3.39574E+02 7.86556E+01-6.06865E+02
 -1       657 1.34171E+04-1.07877E+02-7.61827E+02 4.62537E+02 1.33472E+02-7.16883E+02
 -1       658 1.51927E+04-1.69223E+02-6.99052E+02 5.56113E+02 2.16049E+02-7.74478E+02
 -1       659 1.64958E+04-1.53956E+02-5.90311E+02 3.84119E+02 1.66821E+02-8.66888E+02
 -1       660 1.37220E+04-8.50231E+01-4.96283E+02 4.04155E+02 1.43281E+02-1.08596E+03
 -1       661 3.05077E+04-4.92676E+02 1.47835E+03 2.91694E+02 2.35268E+02 1.27645E+03
 -1       662 3.25660E+04-4.53133E+01 3.77752E+03 1.11457E+03 3.21131E+01 1.50241E+03
 -1       663 2.80603E+04-6.75888E+02 4.93474E+02 1.67053E+01 2.05504E+02 2.54002E+02
 -1       664 2.67101E+04-2.30447E+02 3.81285E+02 1.79803E+02 1.93089E+02 3.55955E+01
 -1       665 2.38578E+04 4.24543E+01-1.10478E+02 2.15101E+02 6.53268E+01-3.86919E+02
 -1       666 2.58279E+04-2.69503E+02 5.59263E+02 3.85611E+02-4.12886E+01 1.29698E+01
 -1       667 2.83591E+04-4.01370E+02 1.51050E+03 4.37273E+02-1.10335E+01 2.48769E+02
 -1       668 2.98732E+04-5.76545E+02 2.83206E+03 6.33152E+02 1.78773E+01 7.11147E+02
 -1       669 3.10932E+04-5.71716E+02 3.05408E+03 7.66649E+02-2.70448E+01 7.96910E+02
 -1       670 3.01433E+04-6.50088E+02 1.00400E+03-9.94311E+01 1.19147E+02-1.05268E+03
 -1       671 2.80217E+04-1.82553E+02 6.06360E+02-1.24609E+02-3.37161E+01-2.59374E+02
 -1       672 3.32636E+04 5.51997E+02 3.92783E+03 1.22804E+03-3.02386E-01-1.69755E+03
 -1       673 3.09645E+04-5.48187E+01 3.30183E+03 4.40720E+02 1.60117E+02-7.05307E+02
 -1       674 3.02608E+04-5.62127E+02 3.04579E+03 6.89904E+02-8.39112E+00-6.58431E+02
 -1       675 2.78578E+04-2.45176E+02 1.24581E+03-1.52065E+02-1.44303E+02-4.55665E+02
 -1       676 2.57097E+04-3.76025E+02 2.81311E+02-1.53401E+02-4.89363E+01 3.12059E+01
 -1       677 2.42308E+04-2.93037E+02-1.48932E+02 1.07746E+02-1.04825E+02 5.53214E+02
 -1       678 2.63860E+04-3.94634E+02 3.15724E+02-6.93810E+01-5.00695E+01 2.16878E+01
 -1       679 9.46827E+03-4.44207E+02-6.26922E+02 7.51831E+02-8.02428E+01 1.36217E+03
 -1       680 8.03561E+03-2.06584E+02-3.80413E+02 5.75735E+02-3.21321E+01 1.36351E+03
 -1       681 1.14307E+04-2.47331E+02-4.67293E+02 6.46978E+02-1.69899E+02 1.11302E+03
 -1       682 1.34978E+04-5.99013E+01-5.08856E+02 4.21596E+02-1.46778E+02 1.10557E+03
 -1       683 1.63770E+04-1.35211E+02-6.26670E+02 4.04696E+02-1.92700E+02 9.83675E+02
 -1       684 1.48876E+04 3.08093E+01-5.75857E+02 5.11151E+02-1.08671E+02 8.54368E+02
 -1       685 1.26888E+04-9.92435E+01-7.84603E+02 4.27454E+02-1.24220E+02 7.05684E+02
 -1       686 1.02251E+04-8.39300E+01-7.27452E+02 2.92933E+02-5.19879E+01 6.11661E+02
 -1       687 9.31126E+03-3.04705E+02-5.54024E+02 5.19241E+02-4.53249E+01 9.63224E+02
 -1       688 2.80402E+04-1.70888E+03 1.61989E+03-2.73021E+02-4.52734E+01-2.93632E+02
 -1       689 2.76852E+04-1.68281E+03 1.53830E+03-2.44544E+02 6.13516E+01 3.32950E+02
 -1       690 2.16508E+04-8.91326E+01-4.49572E+02 2.38400E+02 7.36926E+01-5.01245E+02
 -1       691 1.91622E+04-1.22743E+02-6.64169E+02 3.02056E+02 5.48020E+01-7.36732E+02
 -1       692 1.14913E+04-4.34266E+02-1.13489E+03 6.65271E+02 7.07497E+01-2.95029E+02
 -1       693 1.09100E+04-4.30461E+02-1.12924E+03 6.40048E+02-1.25530E+02 3.49313E+02
 -1       694 1.89475E+04-1.61072E+02-6.59618E+02 3.06316E+02-1.06963E+02 8.45413E+02
 -1       695 2.15930E+04-1.64298E+02-5.90371E+02 1.59232E+02-1.03884E+02 5.38191E+02
 -1       696 2.05737E+04 9.14643E+01-6.87900E+02 2.02525E+02-3.73162E+00-3.47578E+01
 -1       697 2.87673E+04-4.92238E+02 1.22498E+03 2.92511E+02-1.36522E+02-4.89872E+02
 -1       698 1.22610E+04-2.54222E+02-5.85345E+02 6.89852E+02-1.78701E+02 1.05334E+03
 -1       699 1.17900E+04-1.69238E+02-6.57330E+02 5.77293E+02 1.59119E+02-1.02839E+03
 -1       700 2.89496E+04-6.47183E+02 1.29870E+03 6.60497E+01 2.07464E+02 5.89089E+02
 -1       701 9.10327E+03-1.37420E+03-1.19894E+03 1.14054E+03-8.45177E+00 2.94525E+00
 -1       702 2.00855E+04 5.25158E+01-4.79730E+02 1.68510E+02-8.75277E+01 8.40936E+02
 -1       703 3.45230E+04-3.23974E+03 3.04909E+03 9.67113E+02 1.42645E+01-3.16775E+01
 -1       704 2.04860E+04-1.09687E+02-3.73022E+02 1.61834E+02 9.59856E+01-8.28341E+02
 -1       705 3.17947E+04-1.00851E+03 1.30968E+03-6.65442E+02 1.36291E+02 2.12799E+03
 -1       706 3.54030E+04-1.97838E+03 1.81458E+03 4.75774E+02-7.57505E+01-2.43046E+03
 -1       707 8.36081E+03-4.46943E+02-3.80221E+02 6.53895E+02 1.44166E+02-1.49523E+03
 -1       708 7.68147E+03-2.21433E+02-4.56880E+02 6.00148E+02-1.30069E+02 1.64019E+03
 -1       709 2.62212E+04-4.19361E+02 6.89490E+02 1.14100E+02-5.23664E+01-1.76174E+02
 -1       710 1.38544E+04-3.83051E+02-8.89145E+02 6.28838E+02 4.84513E+01-4.53515E+02
 -1       711 1.80880E+04-1.15093E+02-7.71453E+02 4.65749E+02-1.20083E+02 5.30967E+02
 -1       712 2.31914E+04-5.33067E+01-1.54223E+02 1.35613E+02 1.13748E+02-2.58933E+02
 -1       713 3.46406E+04-3.48603E+03 4.86112E+03 7.93079E+02-2.59470E+02 1.07872E+03
 -1       714 2.46013E+04-4.20966E+02-2.07992E+02 2.73665E+01 1.49138E+02-5.16447E+02
 -1       715 6.67396E+03-8.12225E+02-5.96207E+02 8.42202E+02-7.52995E+01-8.55795E+02
 -1       716 2.46854E+04-3.10498E+02-1.89172E+02-5.46284E+01-1.28472E+02 4.83559E+02
 -1       717 6.93919E+03-7.05444E+02-4.93737E+02 6.73365E+02-6.17933E+00 7.93729E+02
 -1       718 1.51395E+04-7.42693E+01-3.60790E+02 2.93714E+02-1.37595E+02 9.56178E+02
 -1       719 3.55465E+04-3.91726E+03 4.91660E+03 9.92746E+02 2.57870E+02-1.00798E+03
 -1       720 1.51772E+04-6.97128E+01-3.41173E+02 2.80610E+02 1.57023E+02-9.29492E+02
 -1       721 1.38315E+04-1.39423E+02-9.45332E+02 4.00687E+02-7.54661E+01 4.18194E+02
 -1       722 1.80519E+04-2.69422E+02-7.74405E+02 3.20600E+02 1.41443E+02-7.53323E+02
 -1       723 2.69784E+04-3.21594E+02 1.04725E+03 1.34864E+02 3.74859E+01 2.15715E+02
 -1       724 2.30625E+04-3.15565E+02-1.78174E+02 3.06752E+02-8.66423E+01 3.38302E+02
 -1       725 1.14250E+04-1.24540E+02-3.12574E+02 3.31355E+02 1.20883E+02-8.47272E+02
 -1       726 4.03527E+04-2.85293E+03 7.20952E+03 2.24001E+03 1.03894E+01-2.55564E+03
 -1       727 5.22508E+03-7.56095E+02 3.89475E+01 4.17743E+02-4.62768E+00 1.39375E+03
 -1       728 1.11452E+04-1.66596E+02-3.56460E+02 5.03051E+02-5.71394E+01 8.02437E+02
 -1       729 2.80588E+04-1.40040E+02-1.07150E+02-1.47543E+02-9.94476E+01-5.75645E+01
 -1       730 5.08761E+03-7.02692E+02-5.85032E+01 4.51145E+02-2.94501E+01-1.35222E+03
 -1       731 4.16442E+04-1.94887E+03 7.78475E+03 3.29475E+03 1.45695E+01 2.74159E+03
 -1       732 2.81928E+04-3.35959E+02-2.20146E+02-6.77844E+01 1.72583E+02-1.44830E+02
 -1       733 6.16561E+03-7.71095E+02-1.46515E+00 4.99179E+02 8.01508E+01-1.87654E+03
 -1       734 4.52633E+04-2.08284E+03 3.87701E+03 3.01307E+03 3.42125E+01-4.74372E+03
 -1       735 4.31430E+04-3.51367E+03 2.44011E+03 6.26582E+02 1.35475E+02 5.36101E+03
 -1       736 6.15336E+03-7.63880E+02 3.10933E+01 4.92116E+02-8.99028E+01 1.90677E+03
 -1       737 4.86115E+03-4.55152E+01 8.30508E+02-5.34752E+02-4.28564E+01-1.85082E+03
 -1       738 8.63174E+03 1.12043E+03 1.39637E+03-1.02386E+03 4.03531E+02-2.14870E+03
 -1       739 6.79296E+03-6.89751E+02-4.64873E+02 8.50355E+02-1.40315E+02-7.96621E+02
 -1       740 4.84934E+03-1.70651E+01 8.40429E+02-5.57293E+02 1.73585E+01 1.85304E+03
 -1       741 8.68163E+03 1.16013E+03 1.43660E+03-1.04686E+03-4.34843E+02 2.17337E+03
 -1       742 6.74138E+03-7.86709E+02-5.15362E+02 8.70207E+02 1.66269E+02 7.88896E+02
 -1       743 5.10147E+04 3.77232E+03 1.22625E+04 6.74709E+03-4.63810E+02 4.49141E+03
 -1       744 5.75546E+04 6.09201E+03 1.13882E+04 7.12508E+03 1.59228E+03 9.09406E+03
 -1       745 3.29897E+04-2.50690E+03-1.20398E+03-1.06133E+03-5.06130E+02 1.28448E+03
 -1       746 5.37752E+04 1.02481E+04 1.50117E+04 1.09183E+04 1.23648E+02-5.13731E+03
 -1       747 5.73284E+04 6.47830E+03 1.16738E+04 7.84668E+03-1.77151E+03-8.39201E+03
 -1       748 3.33076E+04-2.34893E+03-1.67099E+03-1.00904E+03 1.35383E+03-5.79071E+02
 -1       749 3.46562E+03-3.12747E+02 2.92155E+02-1.47952E+02 1.79450E+01 1.16714E+03
 -1       750 4.24678E+03 2.10626E+02 6.88877E+02-4.23635E+02-2.83049E+01 1.53974E+03
 -1       751 6.23184E+03-3.20645E+02-1.56069E+02 4.65685E+02-1.29948E+01 1.63889E+03
 -1       752 5.32451E+03 2.73673E+02 3.93990E+02-2.08675E+02 3.40856E+01 1.78772E+03
 -1       753 6.23409E+03-4.35833E+02-5.58328E+02 5.76041E+02-1.13803E+02 1.79589E+03
 -1       754 3.99173E+03-4.82964E+02-1.85185E+02 2.21978E+02 5.44786E+01 4.81656E+02
 -1       755 3.98073E+03-5.79324E+02-1.38178E+02 1.68501E+02 5.77606E+01 9.10858E+02
 -1       756 5.93109E+03-8.35819E+02-3.00412E+02 6.60926E+02-3.02167E+01 1.00215E+03
 -1       757 3.95062E+03-5.74181E+02-1.58162E+02 1.70494E+02-1.12731E+02-9.23215E+02
 -1       758 4.03447E+03-3.89723E+02-9.96453E+01 2.19524E+02-9.02134E+01-4.98264E+02
 -1       759 8.16485E+03-5.94136E+02-7.97556E+02 8.37334E+02 1.18529E+02-5.46895E+02
 -1       760 5.11583E+03-1.09575E+03-5.91193E+02 5.36035E+02 2.35099E+00-4.45716E+00
 -1       761 7.96033E+03-8.81052E+02-8.76436E+02 8.59045E+02-2.07654E+02 5.53481E+02
 -1       762 4.18162E+03 2.46700E+02 6.61306E+02-4.03691E+02 6.59006E+01-1.52446E+03
 -1       763 3.33258E+03-3.22950E+02 1.95340E+02-1.77778E+02-2.99807E+01-1.17019E+03
 -1       764 5.86631E+03-8.32718E+02-3.48212E+02 6.83835E+02-4.53067E+01-1.05759E+03
 -1       765 6.06237E+03-6.43085E+02-3.62817E+02 6.38285E+02-8.61691E+01-1.50866E+03
 -1       766 5.34186E+03 1.34098E+02 3.46105E+02-2.20293E+02-2.55103E+01-1.78161E+03
 -1       767 6.31694E+03-4.62797E+02-5.89588E+02 5.57981E+02 1.78976E+02-1.77143E+03
 -1       768 5.04414E+04 5.67840E+03 1.53832E+04 8.55492E+03 2.56677E+02-1.98996E+03
 -1       769 5.26528E+04 1.03559E+04 1.65905E+04 1.04266E+04-3.92532E+02-4.07548E+03
 -1       770 3.78303E+04-1.90726E+03 4.87439E+03 1.95526E+03-1.09927E+02-3.08675E+03
 -1       771 4.70472E+04 7.81008E+03 1.09562E+04 7.93869E+03-3.72108E+01-3.87921E+03
 -1       772 3.81277E+04-3.23021E+03 1.55114E+03 1.05847E+03 1.91794E+02-3.44782E+03
 -1       773 4.40860E+04 4.37740E+03 1.19328E+04 7.17622E+03 6.86012E+02-5.03590E+01
 -1       774 4.64265E+04 5.13090E+03 1.32884E+04 7.90504E+03 6.18807E+02-1.10463E+03
 -1       775 3.73541E+04-4.10803E+03 6.00247E+03 7.83617E+02 7.98692E+01-1.37907E+03
 -1       776 4.66413E+04 6.19717E+03 1.28098E+04 8.29069E+03-4.23262E+02 1.44366E+03
 -1       777 4.36452E+04 4.11938E+03 1.18912E+04 6.77147E+03-7.22029E+02-1.64881E+01
 -1       778 3.51095E+04-2.58352E+03 4.23116E+03 8.84154E+02 1.58374E+02 4.16337E+02
 -1       779 4.38679E+04 6.02293E+03 1.21312E+04 7.24819E+03 3.85183E+00-2.33898E+00
 -1       780 3.51486E+04-2.77218E+03 4.33188E+03 1.06071E+03-1.00760E+02-4.06479E+02
 -1       781 5.06802E+04 5.52976E+03 1.45652E+04 8.13121E+03 5.04612E+02 4.07182E+03
 -1       782 5.35301E+04 1.04605E+04 1.71548E+04 1.12291E+04 1.34539E+02 2.37401E+03
 -1       783 3.72051E+04-2.94179E+03 6.41942E+03 1.79047E+03-3.48055E+02 1.61220E+03
 -1       784 3.55094E+04-5.85844E+02 4.54691E+03 8.43865E+02-3.19857E+02 2.44367E+03
 -1       785 4.38582E+04 1.47657E+03 8.79560E+03 3.74034E+03 2.01672E+02 3.80741E+03
 -1       786 3.44427E+04-1.13342E+03 6.75557E+02-5.83961E+02 3.60837E+02 3.42191E+03
 -1       787 1.20586E+04-9.82377E+01-2.02383E+02 2.72110E+02 4.39287E+01 5.59674E+02
 -1       788 9.77893E+03-7.17964E+01-1.89352E+02 3.94663E+02-1.18798E+02 5.23699E+02
 -1       789 9.75864E+03 9.12247E+01-2.42871E+02 4.73861E+02-8.65023E+01 1.19090E+03
 -1       790 8.29743E+03-1.42386E+02-2.28897E+02 5.10505E+02-1.17455E+02 9.41316E+02
 -1       791 1.68188E+04 4.42226E+01-1.36550E+02 3.30622E+02-4.67850E+01 6.20741E+02
 -1       792 1.39947E+04 9.10744E+01-1.96369E+02 2.13415E+02-7.54024E+01 6.74646E+02
 -1       793 1.31247E+04-9.66238E+01-3.00068E+02 3.79659E+02-1.16579E+02 8.92249E+02
 -1       794 2.35008E+04-4.10590E+01-1.37975E+02 2.95945E+01-9.40442E+01 4.25077E+02
 -1       795 2.11468E+04-1.81096E+02-1.42411E+02 1.78283E+02-1.08022E+02 4.39840E+02
 -1       796 2.22607E+04 2.92261E+01-2.94577E+02 1.07930E+02-8.24410E+01 7.12336E+02
 -1       797 1.90758E+04-1.35984E+01-1.97723E+02 3.28025E+02-5.24437E+01 6.63464E+02
 -1       798 1.74801E+04-6.66781E+01-4.75204E+02 2.20940E+02-7.81292E+01 9.21763E+02
 -1       799 2.91015E+04 7.48017E+01 5.40290E+01 1.78132E+02-2.05520E+02-5.39906E+01
 -1       800 2.55603E+04 1.53062E+02-1.13836E+02-1.58017E+01-2.15560E+00 1.41130E+02
 -1       801 2.62020E+04-3.50324E+02-1.84624E+02-1.24259E+02-1.27070E+02 2.68816E+02
 -1       802 3.02189E+04-6.20331E+02 5.78475E+02-6.58146E+01-9.16550E+01-1.02947E+03
 -1       803 3.26728E+04 4.80614E+01 1.03806E+03 1.20245E+02-1.73904E+02-8.75991E+02
 -1       804 1.20264E+04-1.11721E+02-2.01179E+02 2.64459E+02-8.64553E+00-5.52743E+02
 -1       805 9.83442E+03-1.26805E+02-2.04455E+02 3.59510E+02 1.47269E+02-5.24177E+02
 -1       806 1.01208E+04-1.33748E+02-2.20077E+02 4.30215E+02 1.56914E+02-1.28559E+03
 -1       807 8.42753E+03-2.18299E+02-2.02339E+02 5.62536E+02 1.83759E+02-9.24434E+02
 -1       808 1.66283E+04-2.70831E+01-1.10490E+02 2.40245E+02 3.71889E+01-6.71863E+02
 -1       809 1.40002E+04 6.45382E+01-1.71222E+02 1.72159E+02 1.27950E+02-6.64826E+02
 -1       810 1.29619E+04-1.93822E+02-4.34535E+02 2.75768E+02 1.29791E+02-8.83570E+02
 -1       811 2.34924E+04-1.26303E+01-1.66811E+02 5.67619E+01 1.00080E+02-5.04675E+02
 -1       812 2.09683E+04-5.48491E+01-1.84250E+02 3.17903E+01 3.30898E+01-5.56942E+02
 -1       813 2.20860E+04-4.14506E+02-4.39497E+02-4.06715E+01 6.14045E+01-6.92320E+02
 -1       814 1.94916E+04 1.38743E+02-1.13329E+02 1.44653E+02 4.21595E+01-6.75416E+02
 -1       815 1.75910E+04-1.56218E+02-4.83820E+02 2.74758E+02 1.74884E+02-8.17943E+02
 -1       816 2.90313E+04-1.97590E+02-1.12642E+02-5.66539E+01 5.34799E+02-1.19197E+02
 -1       817 2.54529E+04 1.40600E+02-1.60593E+02 1.23124E+01 1.65892E+01-2.43452E+02
 -1       818 2.61182E+04-4.77300E+02-2.73877E+02 1.40821E+01 1.21693E+02-3.85023E+02
 -1       819 3.08537E+04-1.83160E+02 9.52934E+02 4.35386E+01 9.02548E+01 1.05725E+03
 -1       820 3.13260E+04-3.75784E+02 6.44906E+02-4.51472E+02 1.19781E+02 5.23705E+02
 -1       821 2.65201E+04-2.34154E+02 8.97430E+02 1.76999E+02-2.66333E+01-4.79429E+01
 -1       822 2.35249E+04 1.35601E+02-5.85825E+00 1.48245E+02-9.57931E+01-3.24138E+01
 -1       823 2.39019E+04 1.85887E+02 1.90328E+02 1.47301E+02 3.70030E+01 4.55142E+01
 -1       824 2.46221E+04-4.42696E+02 2.51679E+02 2.95171E+02-1.27847E+02 1.01653E+02
 -1       825 2.18402E+04 5.70034E+01-3.42646E+02 2.02775E+02-7.52913E+00 1.15029E+02
 -1       826 1.36623E+04-2.60546E+02-9.72118E+02 5.54245E+02-5.70303E+01 8.93780E+00
 -1       827 1.71929E+04-1.61065E+02-8.23194E+02 3.97900E+02 7.30272E+01-1.24964E+02
 -1       828 1.73566E+04 1.19677E+02-7.49079E+02 2.38859E+02-1.87676E+01 1.86638E+02
 -1       829 1.57893E+04-4.13975E+02-8.66044E+02 3.79676E+02 5.48625E+01-6.43617E+02
 -1       830 1.91876E+04-1.01701E+02-6.98977E+02 3.18861E+02 4.29193E+01-4.09235E+02
 -1       831 1.61816E+04 9.67943E+01-8.20172E+02 2.88377E+02-1.27469E+02 3.56144E+02
 -1       832 1.92486E+04-5.03249E+01-7.95078E+02 3.25548E+02-9.25436E+01 1.93808E+02
 -1       833 2.01803E+04-2.67877E+02-6.10262E+02 3.16380E+02-7.67773E+01 4.45106E+02
 -1       834 2.05701E+04-2.59771E+02-4.85512E+02 2.17893E+02 1.42246E+02-4.89076E+02
 -1       835 2.20335E+04 4.26776E+01-3.84980E+02 1.48783E+02 2.18826E+01-1.11998E+02
 -1       836 2.50350E+04-1.11851E+02 3.67562E+02 1.89575E+02 8.58883E+01 1.56596E+01
 -1       837 3.01358E+04-1.10323E+03 1.05681E+03-3.77494E+01-1.06897E+02-1.09212E+03
 -1       838 3.31137E+04 2.62603E+02 4.12763E+03 1.28386E+03-1.61074E+02-1.57550E+03
 -1       839 2.78493E+04-6.50846E+02 4.43242E+02-8.26762E+01-2.16202E+02-2.01585E+02
 -1       840 2.95131E+04-4.23701E+02 2.81563E+03 4.65771E+02-6.93284E+01-7.24466E+02
 -1       841 3.08726E+04-6.88451E+02 2.98228E+03 8.16429E+02 6.95264E+00-7.87414E+02
 -1       842 2.75882E+04-6.07410E+02 1.14402E+03 2.48511E+02-4.70259E+01-2.64940E+02
 -1       843 2.56986E+04-3.50606E+02 5.11377E+02 3.59904E+02 2.39250E+01 3.99753E+01
 -1       844 2.38391E+04-3.11300E+01-1.65782E+02 1.41248E+02-4.70892E+01 4.25105E+02
 -1       845 2.67677E+04-3.67618E+02 2.95685E+02 1.01030E+02-1.96858E+02 4.14611E+00
 -1       846 9.57244E+03-2.18166E+02-6.28547E+02 5.05622E+02-2.00698E+02 1.32399E+03
 -1       847 8.12951E+03-1.77003E+02-4.17583E+02 4.60676E+02-9.23975E+01 1.34019E+03
 -1       848 1.16060E+04-1.95318E+02-5.38003E+02 5.96491E+02-2.39854E+02 1.09025E+03
 -1       849 1.63988E+04-1.45510E+02-6.69668E+02 2.76682E+02-1.25843E+02 8.95970E+02
 -1       850 1.39074E+04-1.79222E+02-5.04740E+02 4.19466E+02-1.46062E+02 1.19928E+03
 -1       851 1.52086E+04-2.44364E+02-6.94597E+02 5.81086E+02-1.90547E+02 6.87484E+02
 -1       852 1.28926E+04-1.70798E+02-6.97578E+02 6.07639E+02-1.14889E+02 7.15451E+02
 -1       853 1.02404E+04-2.67506E+02-8.06066E+02 4.93233E+02-7.21351E+01 5.82559E+02
 -1       854 9.21175E+03-3.20593E+02-5.46948E+02 5.53320E+02-3.08545E+01 8.87977E+02
 -1       855 1.02346E+04-2.97459E+02-4.12466E+02 5.39342E+02 1.54515E+02-1.13881E+03
 -1       856 1.15305E+04-1.44639E+02-4.12238E+02 4.54880E+02 1.37228E+02-1.07946E+03
 -1       857 8.11887E+03-3.97098E+02-5.27994E+02 6.52812E+02 7.23187E+01-1.29368E+03
 -1       858 1.01871E+04-3.21262E+02-7.64448E+02 6.23671E+02-5.84656E-01-7.09038E+02
 -1       859 9.16492E+03-3.96144E+02-6.38559E+02 6.46455E+02 5.44240E+00-9.53338E+02
 -1       860 1.28511E+04-1.74606E+02-7.69561E+02 5.92499E+02 1.64080E+02-7.76927E+02
 -1       861 1.46280E+04-1.93488E+02-8.41667E+02 4.21773E+02 1.51870E+02-8.36827E+02
 -1       862 1.63333E+04-1.67382E+02-7.17398E+02 3.68100E+02 1.57332E+02-8.48788E+02
 -1       863 1.34194E+04-8.50644E+01-4.70469E+02 4.44229E+02 8.22737E+01-1.02275E+03
 -1       864 3.04725E+04-7.08466E+02 1.53097E+03 1.20055E+02 3.20576E+02 1.28862E+03
 -1       865 3.32248E+04-4.13982E+01 3.74275E+03 1.17538E+03 4.93601E+01 1.72088E+03
 -1       866 2.81449E+04-8.25998E+02 4.88187E+02-5.95461E+01 2.65159E+02 3.38699E+02
 -1       867 2.36729E+04-2.33313E+02-1.54895E+02 8.07745E+01 6.56791E+00-4.09171E+02
 -1       868 2.69259E+04-5.46050E+02 4.19258E+02 1.36623E+02 3.05119E+02 2.62908E+02
 -1       869 2.56976E+04-1.07381E+02 4.66695E+02 1.66830E+02 7.18014E+01 5.31144E+01
 -1       870 2.79587E+04-4.83343E+02 1.34881E+03 1.38778E+02 3.65787E+01 2.94106E+02
 -1       871 3.01411E+04-3.00352E+02 3.13353E+03 6.09037E+02 7.14395E+01 6.90675E+02
 -1       872 3.12136E+04-5.90558E+02 3.32367E+03 7.18114E+02-3.92777E+01 8.14001E+02
 -1       873 1.08985E+04-7.40640E+02-1.17132E+03 8.80472E+02 3.32814E+01-3.34301E+02
 -1       874 1.09976E+04-6.27750E+02-1.11315E+03 7.95134E+02-1.40711E+02 3.41618E+02
 -1       875 1.90452E+04-3.70448E+01-6.43053E+02 2.18364E+02-8.23705E+01 7.27925E+02
 -1       876 2.14382E+04-6.83862E+01-4.94842E+02 1.74904E+02-1.21954E+02 5.66413E+02
 -1       877 2.64616E+04-2.03864E+03 8.01883E+02-6.98698E+02-1.61651E+02-3.78069E+02
 -1       878 2.70554E+04-1.89500E+03 1.04810E+03-6.02579E+02 2.68965E+02 3.33832E+02
 -1       879 2.16887E+04-2.19404E+02-3.43760E+02 1.34724E+02 8.64576E+01-6.07051E+02
 -1       880 1.93416E+04-2.16039E+02-5.93073E+02 2.64900E+02 8.21847E+01-8.66262E+02
 -1       881 2.07686E+04-6.58839E+02-1.29212E+01 8.55400E+03-3.04580E+01 1.00446E+02
 -1       882 2.19540E+04 6.30508E+02-2.50582E+02 7.73685E+03-3.88056E+00-5.19814E+02
 -1       883 1.81914E+04-3.39379E+02-1.18743E+02 6.24068E+03-1.16041E+02-2.79576E+02
 -1       884 1.86225E+04-4.36424E+02-2.69272E+02 6.37950E+03 2.03708E+02 2.46130E+02
 -1       885 2.25634E+04 8.93787E+02-2.78547E+02 7.63198E+03-3.09060E+01 2.69490E+02
 -1       886 2.11537E+04 8.96946E+02-1.97022E+03 7.18898E+03-1.83879E+02-3.70922E+02
 -1       887 2.00176E+04-4.28313E+02-2.29159E+01 6.47662E+03 1.04265E+02-8.29165E+01
 -1       888 2.02237E+04-4.46621E+02 6.94501E+00 6.41321E+03-5.05460E+01 8.48094E+01
 -1       889 2.12243E+04 1.03472E+03-1.94204E+03 7.21803E+03 1.35584E+02 2.27455E+02
 -1       890 2.63905E+04 1.47977E+03-2.39339E+03 7.69385E+03 5.43758E+01 4.88159E+02
 -1       891 1.50929E+04-1.25022E+02-4.71399E+02 3.33376E+03-2.67187E+02-3.12416E+02
 -1       892 1.65237E+04-1.46593E+02-1.01277E+03 3.46108E+03 2.92578E+02-1.65212E+02
 -1       893 2.43998E+04 1.17669E+03-8.27749E+02 7.49018E+03-1.19514E+01-8.43768E+02
 -1       894 2.11207E+04-3.23635E+02-1.71096E+02 8.00375E+03-1.73790E+01 5.47044E+01
 -1       895 2.02803E+04-2.43475E+02-3.04889E+02 7.89677E+03 1.05185E+02 1.88564E+02
 -1       896 2.09743E+04-3.83185E+01-4.46219E+02 8.26816E+03-4.03970E+01-3.92224E+02
 -1       897 2.04383E+04 1.81220E+03-2.11262E+03 5.55116E+03-9.99023E+00 4.03416E+02
 -1       898 2.27732E+04 3.12838E+03-2.38252E+03 7.44835E+03 2.51126E+02-2.79625E+02
 -1       899 1.74624E+04-2.86654E+02-5.80212E-01 4.73637E+03 1.70931E+02 2.26371E+01
 -1       900 2.21732E+04-2.58434E+02-2.75753E+02 5.24798E+03-9.35960E+01 3.98718E+02
 -1       901 2.20623E+04 2.97762E+03-2.23855E+03 7.39748E+03-2.64823E+02-9.51884E+01
 -1       902 2.21105E+04-2.38752E+02-2.45540E+02 5.15227E+03 8.13774E+01-2.55191E+02
 -1       903 2.04714E+04 1.24807E+03-2.50468E+03 5.75698E+03 9.12635E+01-6.72217E+01
 -1       904 1.75400E+04-3.49766E+02-8.38113E+01 4.74649E+03-1.33788E+02-3.98799E+00
 -1       905 2.05900E+04-4.25646E+02-3.26722E+02 7.95346E+03-1.42821E+02-1.58935E+02
 -1       906 2.05785E+04-6.18454E+02-9.14038E+01 7.98082E+03 6.40052E+01-2.29842E+01
 -1       907 2.06203E+04 2.49493E+02 9.97605E+00 8.34011E+03 2.35284E+01 2.48229E+02
 -1       908 1.99538E+04-5.69061E+02-1.11263E+02 7.10606E+03-1.14447E+02-6.52241E+00
 -1       909 2.14250E+04-2.59867E+02-3.05423E+02 7.31405E+03 4.97668E+01-2.78715E+02
 -1       910 1.81866E+04 1.62357E+03-1.74941E+03 3.70930E+03 1.24994E+02-2.19848E+02
 -1       911 1.42352E+04-2.69162E+02-1.32222E+02 3.09085E+03-1.62858E+02-1.60000E+01
 -1       912 2.69075E+04 5.56842E+03-1.64068E+03 7.75111E+03-1.80451E+02 1.53426E+03
 -1       913 2.49978E+04-2.92825E+02-4.72210E+02 3.83008E+03 9.39433E+01-5.68736E+02
 -1       914 1.41155E+04-2.93477E+02-5.44985E+01 3.07309E+03 7.40513E+01 2.14088E+00
 -1       915 2.63475E+04 5.22312E+03-2.11912E+03 7.73355E+03 1.15853E+02-1.16483E+03
 -1       916 2.50872E+04-2.91568E+01-4.21922E+02 4.27268E+03-1.98301E+02 6.64521E+02
 -1       917 1.88790E+04 2.02980E+03-1.43139E+03 3.64589E+03-2.70849E+01 4.35345E+02
 -1       918 1.38442E+04 2.42402E+01-1.02590E+03 8.33733E+02 2.92087E+02 1.17704E+02
 -1       919 1.41946E+04 4.85722E+02-9.20031E+02 6.85646E+02-3.58595E+02 3.75501E+02
 -1       920 3.67619E+04 2.87061E+03-2.02226E+03 7.49454E+03 2.66289E+02-1.54119E+03
 -1       921 3.52378E+04 2.25447E+03-3.47179E+03 8.17213E+03-1.93052E+02-3.78770E+01
 -1       922 3.79103E+04 9.36615E+03 2.05856E+03 7.44490E+03-4.38155E+02 5.09042E+03
 -1       923 5.24118E+04 1.04239E+04 6.21863E+03 1.02362E+04 1.62473E+03 6.53566E+03
 -1       924 2.96679E+04-1.31425E+03-2.74834E+03 3.17603E+03-6.18565E+02-1.75624E+03
 -1       925 1.82483E+04 3.98648E+03 1.88041E+03 8.84992E+02 7.76586E+01 2.56032E+03
 -1       926 1.37774E+04 2.47645E+03 8.40861E+02-1.11773E+03-4.75856E+02 1.64424E+03
 -1       927 1.01419E+04-4.24450E+02-6.53305E+02 1.01313E+03 3.95711E+01-1.07607E+02
 -1       928 1.76650E+04 4.02808E+03 2.00336E+03 1.04663E+03 1.00221E+02-2.48074E+03
 -1       929 1.38846E+04 2.33810E+03 1.17704E+03-1.06151E+03 4.97912E+02-1.58749E+03
 -1       930 9.99373E+03-6.04784E+02-2.31208E+02 9.83996E+02-2.44435E+02 1.21932E+02
 -1       931 3.89506E+04 1.06371E+04 6.25797E+03 7.50997E+03 4.04538E+02-7.20531E+03
 -1       932 5.16141E+04 1.00750E+04 6.10121E+03 9.56340E+03-1.80782E+03-6.85952E+03
 -1       933 3.06554E+04-1.00509E+03-1.88341E+03 2.91593E+03 8.08492E+02 9.95808E+02
 -1       934 3.25382E+04 1.06295E+04 5.93449E+03 6.99094E+03-9.06583E+01 6.46840E+03
 -1       935 3.38105E+04 1.01844E+04 4.00940E+03 7.78545E+03 1.97339E+02 5.55328E+03
 -1       936 2.48967E+04 3.56446E+03-6.05290E+02 7.68059E+03-4.08735E+02 2.08698E+02
 -1       937 3.17402E+04 6.87433E+03 1.61155E+03 7.81097E+03-8.43399E+01 2.92730E+03
 -1       938 2.70140E+04 4.99965E+02-1.30981E+03 7.61780E+03-2.33218E+01-7.25919E+02
 -1       939 2.48426E+04 6.55786E+03 1.82321E+03 6.13706E+03-5.01439E+02 3.32099E+03
 -1       940 2.78463E+04 7.63632E+03 3.39572E+03 6.80673E+03-3.64772E+02 4.54490E+03
 -1       941 2.37314E+04 4.09517E+03-2.04315E+03 7.31482E+03-2.56470E+02 5.69539E+02
 -1       942 2.35439E+04 5.99096E+03 2.40743E+03 4.71977E+03 2.13106E+02 3.66260E+03
 -1       943 2.48945E+04 6.61200E+03 4.16479E+03 5.45070E+03 1.48869E+02 4.38133E+03
 -1       944 2.09934E+04 1.64492E+03-1.45543E+03 6.47182E+03-4.71270E+00 3.18015E+02
 -1       945 2.45091E+04 5.69940E+03 2.78310E+03 6.09939E+03-1.86976E+02 3.34806E+03
 -1       946 2.22541E+04 2.06056E+03-1.60338E+03 7.24416E+03-5.12604E+01-8.38844E+01
 -1       947 2.11873E+04 5.21600E+03 2.14135E+03 1.95087E+03-2.99374E+02 2.97058E+03
 -1       948 2.35193E+04 6.31116E+03 2.72767E+03 3.62586E+03-7.47594E-01 3.83725E+03
 -1       949 1.93684E+04 1.85253E+03-2.01635E+03 4.82016E+03-1.46359E+02 7.39799E+01
 -1       950 1.68541E+04 9.85296E+02-3.21321E+02 3.39854E+03-3.14934E+01 2.23993E+02
 -1       951 1.79403E+04 2.73944E+03 8.07971E+02 2.04954E+03-1.13966E+02 1.58105E+03
 -1       952 1.39737E+04-7.90635E+01-4.90193E+02 2.15614E+03-3.96057E+02-2.49442E+02
 -1       953 2.31258E+04 5.82616E+03 2.55466E+03 3.66882E+03-1.09123E+02-3.77600E+03
 -1       954 2.01097E+04 4.74417E+03 1.39088E+03 1.69023E+03 2.17722E+02-2.69447E+03
 -1       955 1.75632E+04 1.06655E+03-1.07729E+03 3.29533E+03-7.96379E+01-2.30164E+02
 -1       956 1.82875E+04 3.48278E+03 1.46374E+03 1.96830E+03 1.49645E+02-2.40069E+03
 -1       957 1.49422E+04-1.70777E+02-1.22226E+03 2.44881E+03 4.52088E+02 4.42048E+02
 -1       958 2.49570E+04 6.33229E+03 3.84473E+03 5.59113E+03-7.80889E+01-4.16899E+03
 -1       959 2.34629E+04 5.57367E+03 1.95746E+03 4.83054E+03-2.53208E+02-3.39683E+03
 -1       960 1.95458E+04 1.62302E+03-1.71266E+03 4.81841E+03 3.07963E+02-6.02307E+01
 -1       961 2.75292E+04 7.79941E+03 2.50662E+03 6.65992E+03 4.16463E+02-4.36331E+03
 -1       962 2.50730E+04 6.58590E+03 1.81905E+03 6.24512E+03 5.15133E+02-3.54109E+03
 -1       963 2.18969E+04 1.94113E+03-2.05135E+03 7.33751E+03 5.02288E+01 3.61814E+01
 -1       964 2.44907E+04 5.71678E+03 2.76967E+03 6.12212E+03 1.84792E+02-3.32291E+03
 -1       965 2.05203E+04 1.47644E+03-1.91120E+03 6.66956E+03 6.91359E+01 1.80868E+01
 -1       966 3.45732E+04 1.12031E+04 6.64481E+03 7.76938E+03-1.96481E+02-6.82045E+03
 -1       967 3.04619E+04 9.56198E+03 3.00728E+03 6.73615E+03 3.05025E+02-5.05901E+03
 -1       968 2.39414E+04 3.81508E+03-2.79956E+03 7.23577E+03 1.21010E+02-1.36959E+02
 -1       969 2.64973E+04 3.59884E+03-1.98318E+03 8.14642E+03 7.06277E+01-7.15195E+02
 -1       970 3.31114E+04 7.75144E+03 4.41809E+03 7.76952E+03 1.35341E+02-4.93054E+03
 -1       971 2.98250E+04 1.49991E+03-2.89044E+03 7.30976E+03 2.80961E+02-3.52307E+02
 -1       972 2.36947E+04-2.40863E+02-1.12915E+02 1.95443E+03-8.32202E+01-4.05607E+02
 -1       973 2.71635E+04-2.79839E+02-3.39024E+02 2.17443E+03 4.71185E+02-4.77859E+02
 -1       974 2.55722E+04 8.18889E+02-4.56878E+01 5.72144E+03 1.98241E+01-3.58899E+02
 -1       975 2.76546E+04 5.75785E+02-4.87606E+02 3.98818E+03 1.98303E+02-7.74867E+02
 -1       976 2.04530E+04-3.21369E+01 7.60416E+01 2.77384E+03 4.75736E+01-1.67359E+02
 -1       977 2.22778E+04-1.20683E+02 1.13374E+02 2.85262E+03 5.03184E+01-1.62878E+02
 -1       978 2.31872E+04-3.61023E+02-4.73548E+02 4.55737E+03 6.33941E+01-4.01814E+02
 -1       979 1.53132E+04-6.75466E+01 8.25702E+01 2.64506E+03 3.99779E+01 3.84793E+01
 -1       980 1.75621E+04-1.53887E+02 2.27171E+01 2.61259E+03 8.63870E+01-8.61727E+01
 -1       981 1.88100E+04-2.77633E+02 5.86148E+01 5.56737E+03 1.90907E+02-1.78539E+00
 -1       982 1.90255E+04-2.46969E+02 1.67613E+01 3.60926E+03 5.28574E+01-6.93942E+01
 -1       983 2.07772E+04-4.58184E+02-1.60893E+02 5.80469E+03 4.64540E+01-1.75324E+02
 -1       984 1.15056E+04-5.79737E+00 7.52608E+01 1.66131E+03 1.19378E+02-8.73088E+01
 -1       985 1.34379E+04-1.74581E+02-1.04751E+00 1.71827E+03-7.01955E+01-3.63176E+00
 -1       986 1.58909E+04-2.85137E+02-4.03955E+01 3.94169E+03 1.02854E+02 4.66960E+01
 -1       987 1.43319E+04-3.21875E+02-2.10574E+02 3.33802E+03 2.07595E+02 3.53315E-01
 -1       988 1.23369E+04-5.87900E+01 7.12840E+01 2.15905E+03 1.87560E+02 2.84564E+01
 -1       989 1.36202E+04-8.74179E+01 9.60899E+01 1.66524E+03-6.70168E+01 7.91030E+01
 -1       990 1.15423E+04-5.15973E+01-4.44375E+01 1.69514E+03-1.79332E+02 4.65942E+01
 -1       991 1.47142E+04-5.92554E+01-2.54366E+02 3.26320E+03-2.05871E+02-2.46733E+01
 -1       992 1.18542E+04-1.71498E+02-3.47770E+02 2.27888E+03-4.34816E+01-1.07165E+02
 -1       993 1.75331E+04-1.84414E+02-1.74266E+02 2.63276E+03-8.10306E+01 1.67133E+02
 -1       994 1.51075E+04-1.78632E+02-4.35699E+01 2.66324E+03-5.16632E+01 8.52549E+00
 -1       995 1.59739E+04-2.95661E+02 5.10500E+00 3.98170E+03-9.76729E+01-1.27099E+01
 -1       996 2.24717E+04-1.63150E+02 1.25368E+02 2.89975E+03-7.39413E+01 2.39597E+02
 -1       997 2.04711E+04-9.12070E+01 6.04680E+01 2.86772E+03-8.47596E+01 3.12847E+02
 -1       998 2.08159E+04-4.41452E+02-1.13172E+02 5.87282E+03-2.22984E+01 2.34941E+02
 -1       999 1.91709E+04-2.03702E+02-5.58987E+01 3.64230E+03-5.88334E+01 2.10960E+02
 -1      1000 1.90898E+04-2.71242E+02 7.77930E+01 5.61886E+03-1.50994E+02 5.94421E+01
 -1      1001 2.75285E+04 1.14481E+01-3.51000E+01 2.43698E+03-3.18803E+02 3.26583E+02
 -1      1002 2.36568E+04-2.30080E+02-1.92237E+02 2.24185E+03-3.49084E+01 3.63354E+02
 -1      1003 2.29382E+04-4.12557E+02-6.17320E+02 4.74377E+03-1.22684E+02 6.50619E+02
 -1      1004 2.53355E+04 9.25439E+02-6.45544E+02 6.01396E+03-8.64689E+01 7.50509E+02
 -1      1005 2.78095E+04 9.10719E+02-3.64181E+01 4.19787E+03-3.38713E+02 4.56056E+02
 -1      1006 2.05530E+04-4.77595E+02-3.94912E+02 7.94368E+03-9.50385E+01-2.55449E+01
 -1      1007 2.09335E+04-5.16183E+02-6.52288E+01 8.33282E+03-2.61229E+01 1.49495E+02
 -1      1008 2.05840E+04-6.31730E+02-1.10830E+02 8.35518E+03-1.11551E+02-9.44013E+00
 -1      1009 2.09546E+04-1.30863E+02-3.85379E+01 8.14571E+03-4.11998E+01 1.68922E+02
 -1      1010 2.07130E+04-2.14013E+02 2.00506E-01 8.42150E+03-3.35755E+01 1.73171E+02
 -1      1011 2.03179E+04-4.86838E+02-1.39501E+02 7.86872E+03 1.05728E+02 3.08553E+01
 -1      1012 2.07106E+04-5.33440E+02-3.14058E+01 8.37436E+03 3.16949E+01-5.66387E-01
 -1      1013 2.05157E+04-5.17390E+02-1.11406E+02 8.26834E+03 2.59973E+01 1.07951E+02
 -1      1014 2.02457E+04 2.78267E+01-1.65014E+02 8.21918E+03-1.26449E+01 2.14991E+02
 -1      1015 2.07861E+04-2.66836E+02-2.52319E+02 8.23813E+03-6.35031E+01-2.23106E+02
 -1      1016 2.07192E+04-4.54836E+02-1.43365E+02 8.43040E+03-5.74558E+01-7.50248E+01
 -1      1017 2.08393E+04-3.26683E+02-1.04092E+02 8.18034E+03-2.14920E+01-1.45984E+02
 -1      1018 2.30706E+04 1.00378E+03-3.51855E+02 7.39540E+03 3.55178E+01-3.30798E+02
 -1      1019 2.33049E+04 2.64177E+03 1.66639E+02 7.86214E+03-2.20399E+02 3.92531E+02
 -1      1020 2.35284E+04 4.57395E+02-3.20726E+02 6.06942E+03 7.06706E+01-5.29175E+02
 -1      1021 2.09668E+04 1.40770E+03-4.57315E+02 7.96058E+03-9.77869E+01-1.77950E+02
 -1      1022 2.14409E+04 3.37312E+02-1.24885E+02 8.06472E+03 1.15026E+02-4.18376E+02
 -1      1023 2.15918E+04 1.97171E+03-3.46833E+02 7.55682E+03-2.60302E+02-7.90679E+01
 -1      1024 2.11101E+04-7.69265E+01-4.10594E+02 7.81623E+03-1.69949E+00-2.92515E+02
 -1      1025 2.18303E+04 2.72550E+02-1.00051E+02 7.55042E+03 4.67476E+01-3.15650E+02
 -1      1026 2.19482E+04-2.53666E+02-1.93073E+02 6.34493E+03 1.06925E+02-2.38739E+02
 -1      1027 2.23952E+04 3.57526E+02-1.27547E+02 6.53979E+03 1.09001E+02-3.12071E+02
 -1      1028 1.84963E+04 7.50770E+02-1.65612E+02 5.83802E+03-9.22114E+01 4.29184E+01
 -1      1029 1.88056E+04 2.79841E+02-7.09814E+02 6.69031E+03-2.30179E+02-5.23251E+02
 -1      1030 1.93504E+04-9.73079E+01-1.09372E+03 7.64542E+03-1.19347E+02-6.85056E+02
 -1      1031 1.93451E+04-3.87307E+02-2.51663E+02 7.07232E+03-9.39947E+01-2.19666E+02
 -1      1032 1.68723E+04-1.13728E+02-6.89902E+01 4.75799E+03-2.81795E+02-8.06991E+01
 -1      1033 1.63307E+04-3.12950E+02-1.21754E+02 4.88461E+03-1.46654E+02-6.25025E+01
 -1      1034 1.79151E+04 7.09875E+02 1.10336E+02 4.96018E+03-1.41804E+02 3.10570E+02
 -1      1035 1.87341E+04-5.08980E+02-9.00475E+01 6.02241E+03-1.27427E+02-1.55482E+01
 -1      1036 1.88648E+04-4.68026E+02-1.83955E+02 6.78093E+03-7.03388E+01-2.29293E+02
 -1      1037 1.78929E+04-4.08222E+02-9.85925E+01 5.56810E+03-9.19254E+01-1.15035E+02
 -1      1038 2.04252E+04-4.39304E+02-2.43250E+02 7.55683E+03-1.32223E+02-7.63933E+01
 -1      1039 1.90461E+04-5.08437E+02-5.12593E+01 6.41511E+03 1.63993E+02-4.27591E+01
 -1      1040 1.81172E+04-3.89980E+02-1.27203E+02 5.60567E+03 2.07713E+02 4.72703E+01
 -1      1041 2.02228E+04-6.18008E+02-1.08676E+02 7.27069E+03 4.36752E+01-2.77332E+01
 -1      1042 1.96327E+04-4.87390E+02 6.13118E+01 7.23464E+03 1.75348E+02 4.02013E+01
 -1      1043 1.69230E+04-2.79800E+02-5.43439E+02 4.86125E+03 2.71471E+02 1.83613E+02
 -1      1044 1.80382E+04 7.61709E+02-8.76912E+01 5.08520E+03 2.14637E+02-2.06021E+02
 -1      1045 1.64998E+04-3.38043E+02-2.34456E+02 4.88330E+03 1.38936E+02 1.01758E+02
 -1      1046 1.90839E+04 4.16828E+02-5.72963E+02 6.87043E+03 1.69213E+02 3.13130E+02
 -1      1047 1.83246E+04-1.07484E+01-6.00479E+02 5.90517E+03 2.60929E+02 2.73845E+02
 -1      1048 1.94925E+04-2.79470E+02-1.77215E+02 7.22390E+03 1.42568E+02 1.79959E+02
 -1      1049 2.28121E+04 6.82222E+02-1.11132E+03 7.26632E+03 1.71829E+02 5.86538E+02
 -1      1050 2.35868E+04 3.06809E+03 1.90241E+02 7.80720E+03 9.73857E+01-4.59174E+02
 -1      1051 2.34504E+04 5.14462E+02-4.17526E+02 6.17482E+03-1.37225E+02 7.03575E+02
 -1      1052 2.12730E+04-2.83920E+02-1.85548E+02 6.86239E+03 1.68607E+00 7.69730E+01
 -1      1053 2.25027E+04 2.72086E+02-3.14896E+02 6.56831E+03-6.91634E+01 2.72980E+02
 -1      1054 2.13310E+04 1.11446E+02-2.81653E+02 7.71129E+03-1.84651E+01 2.79258E+01
 -1      1055 2.14096E+04 6.14999E+02-3.06801E+01 7.95164E+03 2.10795E+00 2.56885E+02
 -1      1056 2.11637E+04 1.76886E+03 9.37703E+01 8.03430E+03 5.13142E+00-1.31240E+02
 -1      1057 2.21732E+04 2.08216E+03-2.80916E+02 7.64921E+03 1.19991E+02-2.96804E+02
 -1      1058 1.95414E+04-1.26127E+02-1.10223E+03 7.97318E+03-3.39325E+00-8.30402E+02
 -1      1059 2.06097E+04-5.05414E+02-1.47004E+02 6.93036E+03 1.91489E+01-1.81238E+02
 -1      1060 2.07125E+04-5.18945E+02-2.04077E+02 7.69311E+03 3.29505E+01-1.24375E+02
 -1      1061 2.08562E+04-3.47546E+02 7.55060E+00 7.26493E+03-1.36009E+01-1.10246E+01
 -1      1062 2.05449E+04-5.51974E+02-1.95080E+02 7.57488E+03-6.18350E+01 3.21335E+00
 -1      1063 2.00227E+04-6.11834E+02-1.10065E+01 6.70039E+03-9.99213E+01 1.94054E+01
 -1      1064 1.95574E+04 2.70892E+02-7.37299E+02 7.50947E+03 1.91618E+02 4.06237E+02
 -1      1065 1.97990E+04 4.34630E+02-2.85968E+02 7.92349E+03-2.89253E+01 3.16439E+02
 -1      1066 2.07674E+04-6.59568E+02 1.74676E+01 8.63546E+03 5.69472E+00 2.95642E+00
 -1      1067 1.83160E+04-2.65687E+02-3.16804E+02 6.05462E+03-2.71901E+02-1.44736E+02
 -1      1068 2.22994E+04 7.87256E+02-2.66942E+02 7.71052E+03-3.68288E+01 2.99452E+02
 -1      1069 1.83990E+04-2.59545E+02-4.57496E+02 5.84538E+03 2.29679E+02 2.10393E+02
 -1      1070 2.23882E+04 7.91851E+02-5.97210E+02 7.69629E+03 8.43949E+01-4.38506E+02
 -1      1071 2.15330E+04 1.44438E+03-1.17830E+03 7.22015E+03 2.14669E+02-3.29572E+02
 -1      1072 2.03328E+04-3.53373E+02 8.53013E+00 6.39892E+03-1.12494E+02 8.14340E+01
 -1      1073 2.13040E+04 8.41278E+02-2.27520E+03 7.22255E+03-2.11382E+02-4.25022E+02
 -1      1074 2.05518E+04-3.89426E+02-1.02580E+02 6.32214E+03 1.25722E+02-7.08233E+01
 -1      1075 2.43653E+04 1.12858E+03-8.70401E+02 7.46381E+03-3.65626E+01-9.51773E+02
 -1      1076 1.69340E+04-3.22583E+02-1.18125E+03 3.70684E+03-3.47911E+02 3.85626E+01
 -1      1077 1.51144E+04-3.40607E+02-3.20882E+02 3.86558E+03 5.78823E+01 6.10209E+02
 -1      1078 2.78493E+04 1.40137E+03-2.79981E+03 7.61370E+03 1.12855E+02 4.03355E+02
 -1      1079 2.02497E+04-2.65848E+02-3.30692E+02 7.79292E+03-1.55438E+02-2.29940E+02
 -1      1080 2.00276E+04 2.05421E+01-1.33449E+02 7.64120E+03 1.29342E+02 5.69234E+01
 -1      1081 2.10920E+04-3.27725E+02-4.48940E+01 8.04223E+03-2.39206E+00 5.86763E+01
 -1      1082 2.10506E+04-3.11016E+02-2.21849E+01 7.80830E+03 7.44439E+01-1.95407E+02
 -1      1083 2.26704E+04 2.93316E+03-2.64853E+03 7.36804E+03-3.41381E+02-5.53295E+00
 -1      1084 2.22886E+04-2.80591E+02-3.23647E+02 5.09641E+03 1.54608E+02-3.33239E+02
 -1      1085 2.02034E+04 1.78880E+03-1.25502E+03 5.64947E+03 1.79463E+02-7.88251E+02
 -1      1086 1.73623E+04-3.37718E+02-6.83241E+01 4.76565E+03-1.55212E+02-3.51894E+01
 -1      1087 2.20549E+04 3.00885E+03-2.35717E+03 7.45819E+03 2.48047E+02 1.14258E+02
 -1      1088 2.20731E+04-2.88560E+02-3.10465E+02 5.19471E+03-8.40095E+01 3.34993E+02
 -1      1089 1.99330E+04 1.61118E+03-1.94617E+03 5.67856E+03-5.42157E+01 2.48024E+02
 -1      1090 1.75353E+04-3.27389E+02-4.08702E+01 4.86562E+03 1.66861E+02 3.09756E+01
 -1      1091 2.05567E+04 2.79240E+02-2.12219E+01 8.27731E+03 8.23801E+01 1.92031E+02
 -1      1092 2.00157E+04-5.61826E+02-1.84603E+02 7.31153E+03 1.49976E+02-5.26663E+01
 -1      1093 2.09513E+04 2.65951E+02-3.52838E+02 8.27493E+03-2.81027E+01-2.59899E+02
 -1      1094 2.02978E+04-6.03115E+02-2.19388E+02 7.57659E+03-1.29988E+02-1.57820E+01
 -1      1095 1.41175E+04-2.68379E+02-2.50460E+01 3.13460E+03 2.22506E+01 6.84715E+01
 -1      1096 1.93865E+04 2.07996E+03-1.27064E+03 3.70019E+03-2.77847E+02 9.95178E+02
 -1      1097 2.62183E+04 4.84403E+03-2.18551E+03 7.70344E+03 3.91618E+01-1.15286E+03
 -1      1098 2.52119E+04-2.01559E+01-2.40323E+02 4.03564E+03-1.09323E+02 4.35430E+02
 -1      1099 1.43490E+04-3.40797E+02-6.44606E+01 3.22872E+03-1.17905E+02-5.96973E+01
 -1      1100 1.94110E+04 2.13056E+03-1.09895E+03 3.84331E+03 2.00975E+02-1.33237E+03
 -1      1101 2.56486E+04 5.10290E+03-2.23508E+03 7.82904E+03-3.13400E+02 8.10324E+02
 -1      1102 2.50399E+04-3.21473E+02-5.36753E+02 3.78461E+03 1.04889E+02-6.34247E+02
 -1      1103 1.42996E+04 3.51471E+02-9.17138E+02 8.87864E+02 3.33337E+02-3.52102E+02
 -1      1104 1.39321E+04-1.44458E+01-1.00934E+03 8.60233E+02-3.05448E+02-1.01280E+02
 -1      1105 3.52334E+04 2.14099E+03-3.26451E+03 8.23772E+03-8.42679E+01 6.26988E+01
 -1      1106 3.47684E+04 1.31781E+03-4.18256E+03 7.56874E+03 2.48390E+02 1.23981E+03
 -1      1107 5.31362E+04 1.02436E+04 7.26626E+03 1.00899E+04-1.72858E+03-6.64730E+03
 -1      1108 3.65536E+04 9.20106E+03 1.73409E+03 6.87142E+03 7.41618E+01-4.51175E+03
 -1      1109 2.90709E+04-1.99981E+03-2.78921E+03 2.79971E+03 1.02667E+03 1.67552E+03
 -1      1110 1.81338E+04 3.77525E+03 1.79275E+03 1.00545E+03-7.95792E+01-2.46695E+03
 -1      1111 1.38257E+04 2.40222E+03 8.44480E+02-1.01455E+03 4.39076E+02-1.63216E+03
 -1      1112 1.03178E+04-3.71214E+02-5.62419E+02 1.06350E+03 2.07551E+01 5.76243E+01
 -1      1113 1.77435E+04 3.99199E+03 2.07326E+03 1.08917E+03-7.72556E+01 2.50825E+03
 -1      1114 1.38587E+04 2.28845E+03 1.18886E+03-1.04254E+03-4.80009E+02 1.59263E+03
 -1      1115 1.00699E+04-5.71156E+02-2.24939E+02 9.91779E+02 2.17199E+02-8.86442E+01
 -1      1116 5.22523E+04 1.04045E+04 6.31724E+03 1.02542E+04 1.59224E+03 6.58158E+03
 -1      1117 3.77354E+04 9.26700E+03 2.01807E+03 7.38746E+03-3.77548E+02 5.13687E+03
 -1      1118 2.96039E+04-1.27263E+03-2.65807E+03 3.20320E+03-6.27335E+02-1.75594E+03
 -1      1119 3.19007E+04 9.49608E+03 2.95011E+03 7.94194E+03-8.42942E+01-4.97436E+03
 -1      1120 3.14922E+04 9.90780E+03 5.39554E+03 6.92661E+03 1.59246E+02-6.16038E+03
 -1      1121 3.29789E+04 8.28867E+03 2.54924E+03 7.81336E+03-9.03327E+00-4.52284E+03
 -1      1122 2.68989E+04 3.21662E+03-2.65416E+03 7.93960E+03 3.03228E+02-3.98637E+02
 -1      1123 2.99169E+04 6.91299E+02-3.70538E+03 6.99405E+03-1.61698E+02 1.65445E+03
 -1      1124 2.79153E+04 7.61331E+03 3.40533E+03 6.89674E+03 3.92025E+02-4.52343E+03
 -1      1125 2.49468E+04 6.60318E+03 1.82477E+03 6.12834E+03 4.67299E+02-3.30025E+03
 -1      1126 2.40127E+04 4.26412E+03-1.99552E+03 7.43710E+03 1.29557E+02-5.87510E+02
 -1      1127 2.41187E+04 6.13790E+03 3.62677E+03 5.49168E+03-9.54916E+01-4.30133E+03
 -1      1128 2.28068E+04 5.32874E+03 2.14507E+03 4.64098E+03-6.23497E+01-3.70109E+03
 -1      1129 2.43385E+04 5.77630E+03 2.81646E+03 6.05686E+03 1.80694E+02-3.52458E+03
 -1      1130 2.10722E+04 1.77381E+03-7.59068E+02 6.55765E+03 1.88287E+02-7.80711E+02
 -1      1131 2.19162E+04 2.22218E+03-1.73750E+03 7.11860E+03 1.13512E+01 6.58896E+01
 -1      1132 2.38748E+04 6.63910E+03 4.07844E+03 3.43014E+03 2.07726E+02-4.75911E+03
 -1      1133 2.07827E+04 4.96743E+03 1.80281E+03 2.28671E+03 3.17718E+02-3.07513E+03
 -1      1134 1.92206E+04 1.83127E+03-1.79520E+03 4.79767E+03 1.22251E+02-8.20841E+02
 -1      1135 1.64079E+04 4.98454E+02-4.30222E+02 3.94784E+03-1.05125E+02 1.43774E+02
 -1      1136 1.78023E+04 2.42041E+03 6.74720E+02 2.19680E+03 5.55887E+01-1.41729E+03
 -1      1137 1.42364E+04-7.14458E+01-2.01443E+02 2.45210E+03 3.05748E+02 2.87323E+02
 -1      1138 2.44014E+04 6.81042E+03 4.57475E+03 3.45019E+03-1.54896E+02 4.76497E+03
 -1      1139 2.02510E+04 4.93347E+03 1.35526E+03 1.97874E+03-2.63636E+02 2.81716E+03
 -1      1140 1.79971E+04 7.02482E+02-1.35683E+03 3.39892E+03-2.12144E+02 4.10986E+02
 -1      1141 1.83979E+04 3.28968E+03 1.34770E+03 2.12703E+03-1.92227E+02 2.30807E+03
 -1      1142 1.52697E+04-1.59335E+02-1.24704E+03 2.54644E+03-4.44823E+02-4.47346E+02
 -1      1143 2.44303E+04 6.25500E+03 3.79717E+03 5.52353E+03 1.57374E+02 4.12838E+03
 -1      1144 2.32483E+04 5.57115E+03 2.40878E+03 4.70667E+03 1.38237E+02 3.58222E+03
 -1      1145 1.91998E+04 2.00498E+03-1.69595E+03 4.76844E+03-1.99881E+02 5.06575E+02
 -1      1146 2.76056E+04 7.76218E+03 2.50979E+03 6.66890E+03-4.33268E+02 4.29924E+03
 -1      1147 2.50630E+04 6.54746E+03 1.80691E+03 6.23031E+03-5.31213E+02 3.45403E+03
 -1      1148 2.22670E+04 2.08048E+03-1.87135E+03 7.30480E+03-1.18495E+02-1.11590E+02
 -1      1149 2.46157E+04 5.71853E+03 2.83517E+03 6.10280E+03-2.13641E+02 3.33325E+03
 -1      1150 2.08517E+04 1.48000E+03-1.66303E+03 6.52855E+03-1.02890E+02 1.34572E+02
 -1      1151 3.34234E+04 9.85984E+03 4.17191E+03 8.01360E+03 2.57910E+02 5.50790E+03
 -1      1152 3.00586E+04 9.28882E+03 2.52586E+03 6.56021E+03-2.91920E+02 4.82532E+03
 -1      1153 2.40394E+04 3.79833E+03-2.93849E+03 7.16192E+03-2.48343E+02 5.92740E+01
 -1      1154 3.17192E+04 6.89227E+03 1.56816E+03 7.74094E+03-1.23572E+02 2.89082E+03
 -1      1155 2.48019E+04 3.50941E+03-7.76272E+02 7.75034E+03-3.79281E+02 5.50816E+01
 -1      1156 2.68709E+04 3.52398E+02-1.30960E+03 7.63803E+03-5.82561E+01-8.32588E+02
 -1      1157 2.40159E+04-8.27140E+01-4.94962E+01 2.13104E+03 1.66768E+01 2.94132E+02
 -1      1158 2.70223E+04-9.08988E+01 3.82620E+01 2.32535E+03-1.31014E+02 8.26899E+01
 -1      1159 2.52575E+04 5.39333E+02-5.00482E+02 5.74775E+03-6.14738E+01 5.04206E+02
 -1      1160 2.84136E+04 8.38931E+02-3.05522E+01 4.07301E+03-2.60294E+02 5.24077E+02
 -1      1161 2.03782E+04-6.63205E+01 1.94665E+01 2.83085E+03-7.38165E+01 2.11711E+02
 -1      1162 2.24109E+04-1.41365E+02 7.69550E+01 2.89716E+03-1.07551E+02 1.67239E+02
 -1      1163 2.31750E+04-3.25519E+02-5.43478E+02 4.54603E+03-1.37804E+02 4.28332E+02
 -1      1164 1.51569E+04-1.48802E+02 8.39667E+00 2.68239E+03-6.12301E+01-5.97211E+00
 -1      1165 1.73376E+04-2.19199E+02-5.91292E+01 2.68571E+03 1.21588E+01 1.46533E+01
 -1      1166 1.89164E+04-2.54235E+02-3.31815E+00 5.56378E+03-1.88323E+02-1.12879E+01
 -1      1167 1.92705E+04-1.43204E+02 7.68289E+01 3.54847E+03-4.96703E+01 6.82519E+01
 -1      1168 2.06620E+04-4.84336E+02-2.30432E+02 5.80843E+03-3.00977E+01 2.28716E+02
 -1      1169 1.16842E+04-3.56318E+01 5.50313E+01 1.75605E+03-1.26478E+02 6.29537E+01
 -1      1170 1.37642E+04-1.48936E+02 8.48562E+01 1.73076E+03-3.41112E+01 3.51236E+01
 -1      1171 1.59370E+04-3.28300E+02-2.55438E+01 4.04770E+03-1.10354E+02-4.09615E+01
 -1      1172 1.25614E+04 4.82078E-01 6.43582E+01 2.25525E+03-1.79849E+02-3.31335E+01
 -1      1173 1.44049E+04-4.27607E+02-4.26014E+02 3.55860E+03-1.83943E+02-1.74924E+02
 -1      1174 1.16040E+04-2.29191E+01 6.66164E+01 1.67985E+03 1.02029E+02-1.03405E+02
 -1      1175 1.34703E+04-7.73633E+01 8.18123E+01 1.73075E+03-4.28145E+01-2.87232E+01
 -1      1176 1.21927E+04-1.07035E+02-1.89995E+02 2.44239E+03 7.51821E-01 1.28584E+02
 -1      1177 1.46970E+04-1.97314E+02-3.39290E+01 3.59048E+03-5.67126E+01 1.77693E+02
 -1      1178 1.53746E+04-7.60854E+01 6.30282E+01 2.74192E+03 2.42637E+01-1.07712E+01
 -1      1179 1.73266E+04-2.57164E+02-6.41836E+01 2.69289E+03-7.32792E+00-4.97064E+01
 -1      1180 1.59005E+04-2.83336E+02-9.66088E+00 4.04424E+03 1.13864E+02 1.10302E+02
 -1      1181 2.04372E+04-5.84873E+01 6.76380E+01 2.81667E+03 4.58767E+01-2.05762E+02
 -1      1182 2.22934E+04-2.44831E+02 8.93223E+01 2.83755E+03 1.17290E+02-1.68531E+02
 -1      1183 1.94042E+04-1.15481E+02 7.22217E+01 3.59413E+03 4.74498E+01-3.77709E+01
 -1      1184 2.09104E+04-4.42886E+02-4.13074E+02 5.71343E+03 1.10671E+02-2.22733E+02
 -1      1185 1.89459E+04-4.03961E+02-1.02169E+02 5.59086E+03 1.35580E+02 4.61746E+00
 -1      1186 2.37230E+04-2.68986E+02-1.19079E+02 1.96453E+03-6.97719E+01-3.85613E+02
 -1      1187 2.72822E+04-2.41185E+02-3.30513E+02 2.14410E+03 5.10774E+02-5.09252E+02
 -1      1188 2.31284E+04-4.51177E+02-5.45760E+02 4.49249E+03 1.28016E+02-4.77965E+02
 -1      1189 2.56184E+04 8.27830E+02-7.46285E+01 5.70735E+03 1.48556E+01-4.25669E+02
 -1      1190 2.76027E+04 5.18788E+02-5.49457E+02 3.94549E+03 2.08608E+02-7.72970E+02
 -1      1191 2.05126E+04-5.40182E+02-1.04162E+02 8.35101E+03-1.24432E+02-5.63652E+01
 -1      1192 2.05285E+04-5.08975E+01-2.34523E+02 8.13690E+03-8.84325E+01-2.09453E+02
 -1      1193 2.07413E+04-2.78363E+02-6.17385E+01 8.44301E+03-4.98348E+01-1.08861E+02
 -1      1194 2.04324E+04-6.28756E+02-6.88757E+01 8.19484E+03-5.71713E+01 6.76727E+01
 -1      1195 2.02943E+04-4.08567E+02-3.40576E+02 7.63105E+03-1.58289E+02-6.08869E+01
 -1      1196 2.04686E+04-3.89133E+02-2.26968E+01 8.21889E+03 1.07356E+02 2.00847E-01
 -1      1197 2.02633E+04 1.73693E+02-7.98607E+01 8.03849E+03 9.04216E+01 5.67129E+01
 -1      1198 2.07344E+04-1.98574E+02 3.14836E+01 8.44480E+03 2.88005E+01 7.77504E+01
 -1      1199 2.04334E+04-4.89350E+02-4.35907E+01 8.04879E+03 9.36775E+01-9.81042E+01
 -1      1200 2.00132E+04-3.69446E+02-2.03099E+02 7.43991E+03 1.42231E+02 1.95320E+01
 -1      1201 2.09567E+04-1.31112E+02-5.60715E+01 8.14881E+03-4.58156E+00 1.25365E+02
 -1      1202 2.09535E+04-5.21331E+02-1.27588E+01 8.34162E+03-2.55737E+01 9.58820E+01
 -1      1203 2.05915E+04-5.09813E+02-1.08440E+02 7.90100E+03-5.06967E+01 3.81348E+01
 -1      1204 2.09606E+04-4.72144E+02 3.45406E+00 8.26423E+03 3.92393E+01-1.45248E+02
 -1      1205 2.05411E+04-4.53601E+02-7.60016E+01 7.58852E+03 1.19513E+02-1.45960E+02
 -1      1206 2.10303E+04-4.24945E+01-1.64370E+02 7.98640E+03-1.69386E+01-1.98596E+02
 -1      1207 1.79581E+04 7.26093E+02 8.06449E+00 4.82124E+03-2.38525E+02 3.74953E+02
 -1      1208 1.66590E+04-4.67797E+02-5.35482E+02 4.85961E+03-2.90699E+02-2.35350E+02
 -1      1209 1.61895E+04-4.08468E+02-2.66793E+02 4.85988E+03-2.21114E+02-4.47522E+01
 -1      1210 1.83379E+04 5.22835E+02-5.28749E+02 5.84947E+03-1.95130E+02-6.20125E+01
 -1      1211 1.93145E+04 4.90047E+02-4.65574E+02 6.74195E+03-1.64063E+02-1.78224E+02
 -1      1212 1.92145E+04-2.12750E+02-4.70156E+02 6.93107E+03-2.04655E+02-2.18806E+02
 -1      1213 1.92877E+04-3.93933E+02-2.29995E+02 6.89034E+03-1.39665E+02-3.96019E+01
 -1      1214 1.88319E+04-5.52777E+02-5.32379E+01 6.21042E+03-1.76055E+02-1.72743E+01
 -1      1215 1.78217E+04-4.67113E+02-1.64428E+02 5.40796E+03-2.26341E+02-4.17189E+01
 -1      1216 2.29958E+04 7.35313E+02-8.84369E+02 7.32885E+03 2.03910E+02 4.65193E+02
 -1      1217 2.35109E+04 3.01423E+03 2.35131E+02 7.88783E+03 1.07120E+02-5.42366E+02
 -1      1218 2.34022E+04 4.41338E+02-3.43542E+02 6.09924E+03-1.12082E+02 5.77231E+02
 -1      1219 2.25329E+04 2.54547E+02-2.87300E+02 6.57448E+03-7.40434E+01 3.21021E+02
 -1      1220 2.14720E+04-1.63493E+02-4.06351E+01 6.82617E+03 2.66222E+01 1.04982E+02
 -1      1221 2.14772E+04 1.72860E+02-1.66967E+02 7.76140E+03-9.94324E+00 7.45231E+01
 -1      1222 2.12378E+04 5.94789E+02-1.02030E+02 8.02212E+03 5.72039E+01 2.64985E+02
 -1      1223 2.09372E+04 1.85689E+03 1.93491E+02 7.92680E+03 5.79298E+01-2.26205E+02
 -1      1224 2.17857E+04 2.10621E+03-2.89427E+02 7.68221E+03 2.38208E+02-1.74359E+02
 -1      1225 1.71650E+04-6.83457E+01 2.74434E+01 4.76649E+03 1.92299E+02 3.18201E+02
 -1      1226 1.61258E+04-4.12036E+02-2.78028E+02 4.65164E+03 5.95710E+01 2.48914E+02
 -1      1227 1.80212E+04 5.92814E+02-4.73372E+02 4.79909E+03 2.17127E+02-2.18552E+02
 -1      1228 1.90086E+04 6.49106E+02-2.95397E+02 5.74457E+03 3.09154E+02-1.91000E+02
 -1      1229 1.97318E+04 8.81728E+02 1.19537E+02 6.62249E+03 1.75915E+02-2.22619E+02
 -1      1230 1.89085E+04-5.97941E+01-1.94592E+02 6.83050E+03 1.47460E+02 1.40234E+02
 -1      1231 1.87601E+04-5.76833E+02-3.34094E+02 6.77190E+03 1.60060E+02 1.12002E+02
 -1      1232 1.85654E+04-5.60885E+02-2.05094E+02 6.14729E+03 1.34724E+02-1.07608E+01
 -1      1233 1.77591E+04-4.68061E+02-2.60214E+02 5.30606E+03 2.43789E+02 1.32015E+02
 -1      1234 2.31825E+04 1.06104E+03-5.75001E+02 7.42760E+03 1.69461E+02-4.18899E+02
 -1      1235 2.32758E+04 2.78879E+03-1.93113E+02 7.87132E+03-6.79494E+01 2.56389E+02
 -1      1236 2.36136E+04 4.42925E+02-5.87004E+02 6.09705E+03 2.14408E+02-6.33107E+02
 -1      1237 2.24705E+04 1.99943E+02-4.27039E+02 6.58948E+03 1.51587E+02-4.13051E+02
 -1      1238 2.14426E+04-2.01842E+02-2.18355E+02 6.65260E+03 3.13168E+01-3.27153E+02
 -1      1239 2.13454E+04 1.84276E+02-2.21574E+02 7.72134E+03 2.04452E+01-2.64061E+02
 -1      1240 2.16195E+04 5.96292E+02-5.81038E+02 7.87409E+03-5.71383E+00-3.10134E+02
 -1      1241 2.08145E+04 1.46164E+03-5.46639E+02 8.03650E+03 9.92450E+00-2.27458E+02
 -1      1242 2.17450E+04 1.77075E+03-7.32689E+02 7.54625E+03-1.40591E+02-7.84707E+01
 -1      1243 1.99072E+04 6.54216E+02-1.11138E+02 7.32743E+03 2.14345E+02-4.92822E+01
 -1      1244 2.01972E+04 7.45057E+02-1.79254E+01 7.64665E+03 1.59909E+02 8.39215E+01
 -1      1245 2.06800E+04-3.46262E+02-6.10187E+00 7.21194E+03 1.47617E+01 3.31452E+01
 -1      1246 2.02585E+04-5.65636E+02-7.35661E+01 6.93779E+03-1.16340E+02 2.61403E+01
 -1      1247 1.89872E+04-1.45977E+02-1.35693E+03 7.52525E+03-1.58038E+02-8.37317E+02
 -1      1248 1.91333E+04-1.25137E+02-1.51275E+03 8.03494E+03 9.16951E+01-8.86226E+02
 -1      1249 2.06778E+04-4.31872E+02-1.22470E+02 7.04844E+03 9.99000E+01-1.38103E+02
 -1      1250 2.02640E+04-5.36497E+02-1.56447E+02 6.74723E+03 1.39236E+02-7.37135E+01
 -1      1251 2.50074E+04 5.37664E+02 5.62926E+02 8.13648E+03 7.59552E+00 1.58022E+01
 -1      1252 2.58840E+04 8.39791E+02 6.94226E+02 6.64657E+03 1.45736E+02-1.93059E+01
 -1      1253 2.64014E+04 1.74493E+03 1.46593E+03 7.87825E+03-2.77779E+01 4.16020E+02
 -1      1254 2.27991E+04 1.31800E+03 1.60963E+03 6.89812E+03 2.07052E+02-7.19539E+02
 -1      1255 2.56776E+04 1.16714E+03 1.12198E+03 7.41110E+03-5.51731E+00-1.66415E+02
 -1      1256 2.23877E+04 7.19384E+02 9.76689E+02 6.79600E+03-3.57086E+02 7.40816E+02
 -1      1257 2.63057E+04 1.74946E+03 1.50565E+03 7.92191E+03-6.48780E+00-4.13167E+02
 -1      1258 2.30760E+04 3.79575E+02 4.45880E+02 6.97209E+03-2.93906E+02 4.65051E+02
 -1      1259 2.11531E+04 3.38845E+02 1.10825E+03 6.17242E+03 2.68128E+02-5.80248E+02
 -1      1260 2.14468E+04 2.30055E+02 4.31151E+02 6.14099E+03 4.19243E+02-6.65359E+02
 -1      1261 2.46792E+04 3.22774E+03 2.88907E+03 7.91141E+03-9.76947E+01 4.72234E+02
 -1      1262 2.42403E+04 4.93821E+02 1.34280E+02 8.08195E+03 6.32140E+01-6.66063E+01
 -1      1263 2.42618E+04 6.86491E+02 2.13145E+02 8.11466E+03-3.47649E+01 4.88339E+01
 -1      1264 2.43335E+04 1.49967E+02 5.92356E+02 6.50640E+03 3.40692E+01-6.54502E+01
 -1      1265 2.31839E+04 2.68050E+03 2.77105E+03 7.32712E+03-8.68920E+01 2.79494E+02
 -1      1266 2.41301E+04 2.69936E+02 5.78361E+02 6.50138E+03-2.60873E+01 4.32090E+01
 -1      1267 1.92577E+04 5.15885E+02 8.15738E+02 5.21661E+03-5.44667E+02 1.23425E+03
 -1      1268 2.83337E+04 2.65672E+03 1.72466E+03 7.54816E+03-1.31022E+02 1.17247E+03
 -1      1269 1.72434E+04 1.66367E+02 7.80822E+02 4.31519E+03 5.08517E+02-1.36728E+03
 -1      1270 2.82558E+04 2.60155E+03 3.56355E+03 7.94099E+03-2.75091E+01 1.32865E+02
 -1      1271 2.94675E+04 3.15225E+03 2.63570E+03 7.68133E+03 1.27644E+02-1.64588E+03
 -1      1272 2.89303E+04 2.64837E+03 2.34385E+03 7.57861E+03 5.14027E+01-1.27404E+03
 -1      1273 1.80223E+04 6.22481E+02 1.12072E+03 4.68427E+03-4.74863E+02 1.43182E+03
 -1      1274 2.79502E+04 3.40649E+03 4.19891E+03 8.16707E+03 1.29645E+01 3.33317E+00
 -1      1275 2.34182E+04 3.30589E+03 2.84121E+03 7.41982E+03 1.44369E+02-7.80015E+02
 -1      1276 2.30632E+04 3.40180E+01 4.71074E+01 6.09986E+03-2.79285E+02 4.10475E+02
 -1      1277 2.30763E+04 3.55035E+03 3.09695E+03 7.30696E+03 2.21477E+02-1.04113E+03
 -1      1278 1.87176E+04 2.43059E+02 1.42030E+03 5.12332E+03-4.54966E+01 1.51851E+02
 -1      1279 2.35949E+04 2.94098E+03 1.58466E+03 7.42914E+03-3.05177E+02 1.47022E+03
 -1      1280 2.27512E+04 7.92376E+01 4.39931E+01 6.20971E+03 3.14560E+02-4.62200E+02
 -1      1281 1.81981E+04 1.57775E+03 2.67135E+03 4.70599E+03 3.56201E+02-1.48387E+03
 -1      1282 2.89277E+04 3.64172E+03 2.93329E+03 8.06278E+03-1.60911E+02 1.72981E+03
 -1      1283 2.36575E+04 3.16751E+03 1.68619E+03 7.41000E+03-3.23277E+02 1.62385E+03
 -1      1284 2.09483E+04 2.10221E+03 2.99512E+03 5.98569E+03-5.14790E+01 1.27692E+02
 -1      1285 1.50912E+04 6.81832E+02 1.06279E+03 2.88583E+03 4.77492E+02-1.86494E+03
 -1      1286 2.34854E+04 8.25184E+01 8.89513E+01 5.81949E+03-2.82403E+02 4.28820E+02
 -1      1287 2.41089E+04 1.45321E+03 3.77368E+02 8.00281E+03 1.28408E+02-2.13510E+02
 -1      1288 2.41571E+04 1.84810E+03 5.86595E+02 7.79059E+03 2.79119E+02-4.94946E+02
 -1      1289 3.48625E+04 3.33504E+03 3.36939E+03 7.71570E+03-4.56067E+01 3.40711E+03
 -1      1290 1.96274E+04 8.50830E+01 8.76466E+02 5.12864E+03-2.14546E+01 5.48564E+01
 -1      1291 2.16638E+04 1.99967E+03 1.65333E+03 6.37795E+03 3.83988E+02-1.56190E+03
 -1      1292 2.04720E+04 2.69678E+03 3.15919E+03 5.70659E+03-2.48461E+02 1.21191E+03
 -1      1293 1.46327E+04 8.81635E+02 1.56038E+03 2.60572E+03-4.01914E+02 2.12979E+03
 -1      1294 3.36872E+04 3.92756E+03 3.36430E+03 7.94440E+03-8.59785E+01 3.32001E+03
 -1      1295 2.70794E+04 2.24047E+03 1.84757E+03 7.56580E+03-7.23400E+01 6.56277E+02
 -1      1296 2.61901E+04 6.22538E+03 5.56240E+03 7.78051E+03-2.60267E+01 2.27712E+03
 -1      1297 2.55534E+04 5.66985E+03 5.33262E+03 7.98901E+03-3.88206E+01 1.62057E+03
 -1      1298 2.48731E+04 2.61713E+03 1.62783E+03 7.69643E+03-2.03894E+02 8.67784E+02
 -1      1299 2.31807E+04 6.15497E+03 5.11148E+03 7.52618E+03 1.86953E+01 2.20810E+03
 -1      1300 2.56921E+04 3.33695E+03 1.65157E+03 7.67170E+03-1.63434E+02 1.41578E+03
 -1      1301 2.45709E+04 2.56109E+03 2.21799E+03 7.56651E+03 7.86524E+01-5.70198E+02
 -1      1302 2.53486E+04 3.70729E+03 2.92109E+03 7.73867E+03-2.00376E+01-1.09889E+03
 -1      1303 2.68909E+04 1.84146E+03 1.87629E+03 7.36343E+03 1.13627E+01-5.03911E+02
 -1      1304 2.47955E+04 1.29895E+03 8.66078E+02 7.50557E+03 1.46853E+02-3.75499E+02
 -1      1305 2.60936E+04 2.28976E+03 1.31359E+03 7.66887E+03 9.24551E+01-7.67772E+02
 -1      1306 2.37377E+04 2.70494E+03 1.80429E+03 7.68005E+03 2.02956E+02-7.44807E+02
 -1      1307 2.46228E+04 1.11851E+03 4.65019E+02 6.98250E+03 5.86847E+01 1.64922E+02
 -1      1308 2.40793E+04 7.62897E+02 4.78751E+02 7.18603E+03-5.17851E+00 5.78737E+01
 -1      1309 2.44340E+04 8.16107E+02 5.50553E+02 6.99279E+03 1.52515E+02-1.46946E+02
 -1      1310 2.22699E+04 4.73428E+01-3.93578E+01 6.60611E+03 1.38190E+02-3.54432E+02
 -1      1311 2.49885E+04 9.43286E+02 6.65265E+02 6.52678E+03 1.62520E+02-3.68298E+01
 -1      1312 2.52567E+04 6.29942E+03 5.36084E+03 7.64164E+03 1.10215E+02-3.10322E+03
 -1      1313 2.27476E+04 6.39903E+03 5.52306E+03 6.99770E+03 1.33690E+02-2.49849E+03
 -1      1314 2.34639E+04 5.10331E+03 3.58690E+03 7.62941E+03 1.04591E+02-2.33680E+03
 -1      1315 2.41025E+04 7.80679E+02 7.32822E+02 7.52145E+03-9.31852E+01 2.09755E+02
 -1      1316 2.42740E+04 8.76793E+02 7.99152E+02 7.21063E+03-8.91884E+01 9.95566E+00
 -1      1317 2.51488E+04 9.03528E+02 9.45505E+02 7.76964E+03-3.96402E+00-1.48558E+02
 -1      1318 2.48184E+04 6.21834E+02 7.11894E+02 8.12723E+03 2.51192E+01-2.63893E+01
 -1      1319 2.46029E+04 7.65201E+02 6.08200E+02 7.81325E+03 4.28933E+01-3.28935E+02
 -1      1320 2.39020E+04 6.78964E+02 3.98763E+02 7.62208E+03-1.49613E+02 1.70136E+02
 -1      1321 2.44690E+04 5.35932E+03 4.50843E+03 7.67656E+03 5.41390E+00-2.30667E+03
 -1      1322 2.55196E+04 5.69666E+03 5.22039E+03 7.97071E+03-6.02367E+01-1.57135E+03
 -1      1323 2.60793E+04 6.50072E+03 5.88007E+03 7.75415E+03 1.18529E+02-2.27583E+03
 -1      1324 2.73670E+04 2.39147E+03 2.14293E+03 7.63288E+03 4.11997E+01-8.61816E+02
 -1      1325 2.53430E+04 6.70128E+03 5.25543E+03 7.62771E+03 2.19117E+02-3.03593E+03
 -1      1326 2.55822E+04 5.91169E+01 8.71713E+02 3.47761E+03 6.13621E+01 5.41369E+00
 -1      1327 2.53341E+04 9.76328E+02 1.04046E+03 7.17118E+03-1.20453E+00 1.36469E+02
 -1      1328 2.74044E+04 1.02890E+03 1.75831E+03 4.55606E+03-4.38067E+00 1.42493E+02
 -1      1329 2.87038E+04 1.59183E+03 3.17322E+03 4.43017E+03-7.23265E+01 1.56162E+00
 -1      1330 2.68008E+04 2.30253E+03 2.80459E+03 7.94402E+03 3.00830E+00 3.08653E+02
 -1      1331 2.60192E+04 1.35515E+03 2.03041E+03 7.02313E+03-5.39180E+01-3.78646E+01
 -1      1332 2.52070E+04 8.23184E+02 9.31091E+02 7.15942E+03 3.17162E-01-1.60809E+02
 -1      1333 2.47160E+04 7.08407E+02 6.22283E+02 7.46423E+03 3.68830E+01 1.18779E+01
 -1      1334 2.35434E+04 1.99796E+02 5.48112E+02 6.76278E+03-1.74367E+02 1.66781E+02
 -1      1335 2.55603E+04 1.02867E+03 5.01664E+02 6.00381E+03 5.52883E+01 1.86123E+02
 -1      1336 2.25177E+04 6.87952E+01 3.12714E+00 5.51764E+03 2.10896E+02-3.92530E+02
 -1      1337 2.39919E+04 5.31680E+03 4.87587E+03 7.34597E+03-6.59263E+01 1.16847E+03
 -1      1338 2.19291E+04 5.57714E+03 4.82933E+03 6.83980E+03-1.39571E+02 1.64384E+03
 -1      1339 2.24077E+04 6.04746E+03 2.30304E+03 7.41918E+03-3.34502E+01-2.37853E+03
 -1      1340 2.61893E+04 3.92670E+03 1.10612E+03 7.53126E+03 3.99136E+02-1.12803E+03
 -1      1341 2.37486E+04 2.63775E+03 2.66836E+02 7.74517E+03 1.62105E+02-3.53878E+02
 -1      1342 2.55868E+04 8.11195E+02 8.92444E+02 4.52322E+03-1.13535E+02-5.86722E+00
 -1      1343 2.69620E+04 9.60511E+02 1.50241E+03 4.53252E+03-5.23972E+01-1.60044E+02
 -1      1344 2.37675E+04 2.65630E+01 4.13719E+02 3.49917E+03-7.73205E+01 1.24563E+02
 -1      1345 2.52411E+04 2.33965E+01 7.36168E+02 3.46950E+03-6.86357E+01-5.23181E+01
 -1      1346 2.96299E+04 1.42461E+03 3.13821E+03 4.36619E+03-4.58622E+01-2.31113E+02
 -1      1347 2.69477E+04 1.99990E+03 2.58391E+03 7.89467E+03-7.75004E+00-2.07395E+02
 -1      1348 2.79887E+04 1.14900E+03 1.82462E+03 4.72187E+03-8.87570E+01-4.49670E+02
 -1      1349 2.97183E+04 1.24043E+03 2.40394E+03 3.98403E+03-6.10183E+01-9.95513E+02
 -1      1350 2.83440E+04 2.80938E+03 3.73262E+03 7.71844E+03 2.18372E+01-7.38222E+02
 -1      1351 2.54213E+04 6.48299E+03 5.19111E+03 7.64237E+03-1.73858E+02 3.25150E+03
 -1      1352 2.24522E+04 5.94364E+03 4.45701E+03 7.11239E+03-7.96693E+01 2.91000E+03
 -1      1353 2.32730E+04-6.50023E+01 9.68536E+01 3.10141E+03-1.66817E+02 3.78343E+02
 -1      1354 2.40922E+04 2.37590E+02 5.45668E+02 6.09319E+03-1.99314E+02 1.83972E+02
 -1      1355 2.46992E+04 8.40370E+02 5.74358E+02 6.84783E+03-1.28664E+02 4.60768E+01
 -1      1356 2.57839E+04 6.77171E+03 6.87573E+03 8.03581E+03 1.10381E+02 1.25652E+03
 -1      1357 2.79596E+04 2.85052E+03 3.54287E+03 7.82718E+03-1.81780E+01 7.50711E+02
 -1      1358 1.83430E+04 4.65418E+03 5.07237E+03 4.67143E+03 1.98761E+02-1.63793E+03
 -1      1359 1.77225E+04 4.34141E+03 4.80764E+03 4.37014E+03 2.62233E+02-2.42050E+03
 -1      1360 1.65339E+04 3.67405E+03 4.27703E+03 3.71263E+03 1.81074E+02-1.64214E+03
 -1      1361 2.49900E+04 8.48382E+02 8.60858E+02 6.99224E+03-5.60229E+01-4.80788E+01
 -1      1362 2.55666E+04-3.03952E+01 8.67887E+02 3.46869E+03-5.50879E+01 4.55872E+01
 -1      1363 2.70341E+04 6.16527E+02 1.47652E+03 4.24497E+03-2.24246E+01-8.33242E+01
 -1      1364 2.65813E+04 2.03320E+03 2.52793E+03 7.57189E+03-1.38554E+01-2.13152E+02
 -1      1365 2.87387E+04 1.41018E+03 3.09788E+03 4.36987E+03 4.65654E+01-8.26294E+01
 -1      1366 1.27938E+04 1.32260E+02 2.53586E+00 1.83309E+03 5.54500E+01-1.04200E+03
 -1      1367 1.08432E+04 6.15757E+01 1.90637E+02 6.29211E+02-5.51477E+01-1.06648E+03
 -1      1368 1.46146E+04 2.01586E+03 1.43246E+03 1.54767E+03 3.24612E+02-1.90031E+03
 -1      1369 1.24869E+04 2.04950E+03 1.49429E+03 1.97971E+02 2.94415E+02-1.78523E+03
 -1      1370 9.12443E+03 1.53799E+03 2.33622E+03-4.93165E+01 1.62017E+02-2.48754E+03
 -1      1371 2.29147E+04 2.38233E+03 2.61977E+03 7.00969E+03 2.38166E+02-9.40008E+02
 -1      1372 2.39353E+04 1.83107E+03 1.66204E+03 7.84437E+03 6.86933E+01-3.24857E+02
 -1      1373 2.39118E+04 9.60125E+02 9.50028E+02 7.62428E+03 1.12276E+02-2.37763E+02
 -1      1374 2.37038E+04 1.64356E+03 1.14873E+03 7.55314E+03 1.36968E+02-6.14056E+02
 -1      1375 2.46766E+04 1.17431E+03 8.63570E+02 8.01108E+03 1.04828E+02-1.77052E+02
 -1      1376 2.34190E+04 1.07634E+03 1.37984E+03 6.85818E+03-1.23982E+01 7.99041E+01
 -1      1377 2.29438E+04 1.98143E+03 2.33405E+03 7.09597E+03 6.85975E+01-1.62086E+02
 -1      1378 2.31357E+04 5.01127E+02 7.19303E+02 6.59571E+03 1.29803E+02-2.87291E+02
 -1      1379 2.14648E+04 2.18745E+02 9.25232E+02 5.77501E+03 6.45479E+00-2.46529E+01
 -1      1380 2.06347E+04 9.86093E+02 1.56518E+03 5.99722E+03 1.07238E+01-2.30882E+02
 -1      1381 2.11608E+04 1.85091E+03 2.30367E+03 6.25144E+03-7.43859E+01 1.88407E+02
 -1      1382 2.29729E+04 6.13180E+03 5.49873E+03 7.13645E+03 8.36960E+01-2.21669E+03
 -1      1383 2.47114E+04 2.74264E+03 2.04718E+03 7.64398E+03 3.63473E+01-5.96153E+02
 -1      1384 2.30979E+04 5.08861E+03 3.74850E+03 7.46792E+03 3.35908E+01-2.42965E+03
 -1      1385 2.51327E+04 1.93439E+03 1.28815E+03 7.79580E+03 2.26499E+02-5.13307E+02
 -1      1386 2.37333E+04 2.75121E+03 1.99786E+03 7.65079E+03 2.28922E+02-7.54282E+02
 -1      1387 2.40779E+04 1.52621E+03 1.42698E+03 7.80732E+03-3.22856E-01 1.01635E+02
 -1      1388 2.56686E+04 7.78481E+02 9.40726E+02 4.43218E+03 9.71086E+01 3.63378E+01
 -1      1389 2.37907E+04 1.70395E+01 4.03060E+02 3.46183E+03 6.91060E+01-1.22478E+02
 -1      1390 1.95481E+04 2.16631E+02 2.37719E+02 5.96221E+03-3.50891E+02 4.46628E+02
 -1      1391 2.08444E+04 4.83292E+02 5.65273E+02 6.09553E+03-4.09416E+02 7.80509E+02
 -1      1392 2.17417E+04 6.63660E+01 2.31982E+02 6.87367E+03-2.37152E+02 2.96344E+02
 -1      1393 2.15171E+04-2.31139E+02-3.67468E+01 6.38356E+03-2.12738E+02 2.93580E+02
 -1      1394 2.30202E+04 1.08209E+02 1.96443E+02 6.47611E+03-2.96468E+02 4.63361E+02
 -1      1395 2.06304E+04 1.06650E+02 1.74225E+02 5.48419E+03-4.37245E+02 5.69188E+02
 -1      1396 2.45205E+04 6.03362E+02 5.85336E+02 7.41088E+03-6.66934E+00-1.48187E+01
 -1      1397 2.50441E+04 8.62865E+02 9.05791E+02 7.68444E+03 6.06722E+00 1.49839E+02
 -1      1398 2.56681E+04 1.58386E+03 1.91876E+03 7.70907E+03-2.77976E+01-1.42558E+01
 -1      1399 2.51003E+04 7.73200E+02 8.72692E+02 7.58796E+03-3.64450E+01-7.89008E+01
 -1      1400 3.28943E+04 2.11043E+03 5.55560E+03 5.37215E+03 8.07117E+01-2.67421E+02
 -1      1401 3.34895E+04 1.56857E+03 5.06220E+03 5.06500E+03 4.21735E+02-1.42826E+03
 -1      1402 1.81284E+04 1.14519E+01 1.23855E+02 4.86059E+03-3.18396E+02 5.32400E+02
 -1      1403 2.05303E+04-9.66264E+01-6.71899E+00 5.19594E+03-2.74169E+02 3.14571E+02
 -1      1404 1.99080E+04 1.12443E+02 1.15121E+02 4.15524E+03-1.94548E+02 6.19321E+02
 -1      1405 2.27838E+04 3.77061E+02 5.67841E+02 6.62183E+03-1.84113E+02 2.87766E+02
 -1      1406 2.13686E+04 8.19454E+01 6.78372E+01 3.54800E+03-1.10668E+02 3.41873E+02
 -1      1407 2.07501E+04 3.10855E+01-1.45742E+02 3.40053E+03-1.90253E+02 4.81480E+02
 -1      1408 2.36226E+04 2.82110E+02 4.60347E+02 6.31801E+03-1.96986E+02 2.52063E+02
 -1      1409 2.22666E+04 8.80881E+01 3.21937E+02 6.46751E+03-3.18523E+02 5.99844E+02
 -1      1410 2.65228E+04 3.37351E+03 3.31094E+03 7.88721E+03-1.04999E+02 2.39776E+02
 -1      1411 2.67140E+04 1.52280E+03 1.92021E+03 7.15432E+03 8.58734E+01 1.36976E+02
 -1      1412 2.52157E+04 1.96377E+03 1.64684E+03 7.36027E+03 6.74175E+00 2.99748E+02
 -1      1413 2.65241E+04 4.01768E+03 3.62647E+03 7.93688E+03-1.36613E+02 1.10435E+03
 -1      1414 2.68184E+04 1.92027E+03 1.60048E+03 7.04150E+03-2.13837E+01 5.49937E+02
 -1      1415 2.81431E+04 3.17990E+03 3.74960E+03 7.97937E+03-8.16290E+01 8.93879E+02
 -1      1416 2.38380E+04-1.28404E+01 4.09861E+02 3.45104E+03-1.17112E+02 1.62372E+02
 -1      1417 2.52112E+04 3.97880E+02 5.94841E+02 4.14281E+03-8.29200E+01 8.96274E+01
 -1      1418 2.34966E+04-4.32581E+01 6.61740E+01 3.23202E+03-1.76408E+02 4.07820E+02
 -1      1419 2.42631E+04 5.19289E+02 4.44095E+02 6.71090E+03-1.86547E+02 2.04822E+02
 -1      1420 2.26385E+04 2.80455E+02 8.64492E+01 8.00642E+03-9.18631E+01-5.72250E+01
 -1      1421 2.20944E+04 1.94308E+02 1.99719E+02 7.31145E+03-2.35198E+02 1.97943E+02
 -1      1422 2.22534E+04 1.19949E+03 5.12503E+02 7.64233E+03-2.13530E+02 5.28431E+02
 -1      1423 2.29528E+04 1.35669E+03 9.47198E+02 7.12017E+03-3.10668E+02 7.76989E+02
 -1      1424 2.36484E+04 1.37208E+03 5.35676E+02 7.89747E+03-1.55899E+02 4.34135E+02
 -1      1425 2.48498E+04 2.64054E+03 2.29974E+03 7.69758E+03 2.88812E+01 4.27065E+02
 -1      1426 2.51572E+04 3.61443E+03 3.52514E+03 7.71390E+03-8.56322E+01 1.42254E+02
 -1      1427 2.03658E+04 5.26533E+03 5.10698E+03 5.89924E+03 2.38205E+02-2.26145E+03
 -1      1428 2.09805E+04 5.56198E+03 5.24631E+03 6.10177E+03 1.38624E+02-1.40523E+03
 -1      1429 2.06730E+04 2.88206E+03 3.10069E+03 5.91414E+03 3.31625E+02-1.30713E+03
 -1      1430 2.42534E+04 1.60076E+03 1.19590E+03 7.99705E+03-3.37388E+01 3.39698E+02
 -1      1431 2.49312E+04 8.07883E+02 3.83343E+02 7.40791E+03 6.83795E+01-6.08600E+00
 -1      1432 2.50685E+04 4.17456E+02 6.79876E+02 6.57254E+03 5.82427E+01-8.33574E+01
 -1      1433 2.45611E+04 5.82711E+02 5.85225E+02 7.37175E+03-3.27907E+01-4.05628E+01
 -1      1434 2.49282E+04 1.47774E+03 1.65388E+03 7.24053E+03-1.53694E+01 1.30866E+02
 -1      1435 3.16330E+04 2.84285E+03 8.27574E+03 5.59003E+03 3.68179E+01-1.50818E+03
 -1      1436 2.80330E+04 7.20877E+03 6.80324E+03 8.88257E+03 7.15862E+01-1.62107E+03
 -1      1437 3.25019E+04 1.37503E+03 4.84564E+03 5.05244E+03 1.89074E+02-1.17691E+03
 -1      1438 3.25530E+04 2.09079E+03 5.44797E+03 5.70571E+03 7.22227E+01-5.92288E+02
 -1      1439 2.81317E+04 3.21195E+03 3.84958E+03 7.88383E+03-2.51540E+01-6.56587E+02
 -1      1440 2.77935E+04 7.41905E+03 7.65582E+03 8.81304E+03 4.18298E+01-6.18248E+02
 -1      1441 2.29689E+04 3.60348E+02 2.68161E+02 7.11719E+03 2.28699E+02-3.42630E+02
 -1      1442 2.29226E+04 2.23992E+02 2.56720E+02 6.29678E+03 3.12835E+02-3.18403E+02
 -1      1443 2.26802E+04 1.44490E+02 4.01409E+02 6.21261E+03 2.78597E+02-3.34063E+02
 -1      1444 2.29039E+04-1.06009E+02 7.62518E+01 3.36144E+03 1.75693E+02-4.18932E+02
 -1      1445 2.36003E+04 2.61220E+02 4.99523E+02 6.41714E+03 1.88110E+02-2.41989E+02
 -1      1446 2.39379E+04 7.97860E+02 8.16901E+02 7.42323E+03-1.65603E+02 2.26721E+02
 -1      1447 2.33454E+04 1.31398E+03 1.62389E+03 7.29114E+03 3.44272E+00 1.50712E+01
 -1      1448 2.22242E+04 8.53796E+02 1.43267E+03 6.32400E+03 1.78708E+00 5.90891E+01
 -1      1449 2.14879E+04 1.20664E+03 1.94539E+03 6.44606E+03-1.93781E+02 5.29801E+02
 -1      1450 3.51059E+04 2.48003E+03 5.72127E+03 6.31731E+03-1.46808E+02 2.43464E+03
 -1      1451 2.94733E+04 8.09011E+03 7.96615E+03 9.05627E+03-2.13500E+02 2.54973E+03
 -1      1452 3.71180E+04 4.48415E+03 1.07818E+04 6.94808E+03 4.77811E+01 2.98198E+03
 -1      1453 3.77709E+04 4.41189E+02 6.14871E+03 5.30543E+03-4.35817E+02 3.02937E+03
 -1      1454 3.28522E+04 8.07317E+03 9.02638E+03 8.94181E+03-4.06126E+02 3.32633E+03
 -1      1455 3.12449E+04 3.31443E+03 2.99613E+03 7.69191E+03-1.17690E+02 2.32872E+03
 -1      1456 2.01446E+04 4.51895E+03 4.92155E+03 5.60408E+03 2.43411E+01-1.62264E+02
 -1      1457 2.03139E+04 4.57573E+03 4.94890E+03 5.73197E+03-8.25056E+01 4.66244E+02
 -1      1458 1.79352E+04 3.01769E+03 4.04173E+03 4.48723E+03-6.92615E+01 3.89599E+02
 -1      1459 1.76118E+04 2.83495E+03 3.90201E+03 4.31795E+03 5.36735E+01-2.17555E+02
 -1      1460 2.46978E+04 6.92373E+02 6.84419E+02 8.17663E+03 1.31503E+01 7.21191E+01
 -1      1461 2.37097E+04 8.28958E+02 7.27809E+02 7.58786E+03 9.69082E+01-3.49729E+02
 -1      1462 2.37531E+04 8.36707E+02 1.97284E+02 8.01251E+03 6.39571E+01-9.97805E+01
 -1      1463 2.33902E+04 2.37861E+02 1.87765E+02 3.49269E+03 1.77264E+02-3.42451E+02
 -1      1464 2.30122E+04 1.41959E+02 1.09026E+02 6.20261E+03 1.73345E+02-1.56559E+02
 -1      1465 2.06757E+04-1.18102E+02-1.20175E+02 3.30101E+03 1.34034E+02-4.59897E+02
 -1      1466 2.05214E+04-1.24757E+01-2.70461E+01 3.31314E+03 2.49469E+02-7.04507E+02
 -1      1467 2.08232E+04-1.25917E+02 4.29124E+01 6.07361E+03 2.70024E+02-4.12744E+02
 -1      1468 2.02821E+04 9.08527E+02 1.16993E+03 5.89530E+03-5.02526E+02 1.07016E+03
 -1      1469 1.85675E+04 5.07967E+02 4.53919E+02 5.31806E+03-4.01841E+02 6.68750E+02
 -1      1470 2.06666E+04 6.00751E+02 5.53065E+02 6.25314E+03-3.52251E+02 4.48907E+02
 -1      1471 2.05124E+04-9.25839E+01-6.54864E+01 6.00062E+03-2.41846E+02 1.75633E+02
 -1      1472 2.01500E+04 2.36799E+02 3.63051E+02 5.50168E+03-4.31536E+02 7.23847E+02
 -1      1473 2.25332E+04 1.41752E+02 1.10846E+02 7.89862E+03 1.34548E+02-6.90878E+01
 -1      1474 2.28575E+04 2.48723E+02 3.32483E+01 7.62350E+03 1.19489E+02-1.10898E+02
 -1      1475 2.34791E+04 4.61906E+02 1.68144E+02 7.26793E+03 2.41316E+02-2.25405E+02
 -1      1476 2.18758E+04-8.98806E+01 2.74534E+01 7.02846E+03 1.70662E+02-2.30013E+02
 -1      1477 1.64671E+04-1.23304E+02-1.13060E+02 2.50865E+03-1.70584E+02 4.37572E+02
 -1      1478 1.75382E+04 3.58277E+01 1.46001E+02 4.72790E+03-2.95729E+02 6.45382E+02
 -1      1479 1.61552E+04 1.48757E+00 1.07030E+02 2.66745E+03-3.06183E+02 9.65123E+02
 -1      1480 1.95085E+04-2.80418E+01-1.22507E+02 3.30357E+03-2.42809E+02 5.78208E+02
 -1      1481 2.01518E+04-1.20625E+02-3.57180E+01 5.32826E+03-2.47121E+02 2.53248E+02
 -1      1482 2.74620E+04 6.79606E+02 9.40094E+02 3.65124E+03-1.07179E+02-2.74323E+02
 -1      1483 2.57814E+04 9.79189E+02 5.41468E+02 5.92465E+03-4.45723E+01-1.53858E+02
 -1      1484 2.36489E+04-9.98333E+01-7.00432E+01 2.58618E+03-1.51026E+02 3.83736E+02
 -1      1485 2.37873E+04 1.15170E+01 8.57001E+01 3.21027E+03-2.32765E+02 4.93552E+02
 -1      1486 2.28252E+04 2.77415E+01-1.02448E+01 5.49699E+03-1.55394E+02 3.92773E+02
 -1      1487 2.54245E+04 9.36131E+02 7.43604E+02 6.41025E+03-1.47604E+02-1.96397E+02
 -1      1488 2.46389E+04 1.52545E+03 1.47282E+03 7.93420E+03-9.57701E+01 8.09341E+01
 -1      1489 2.56307E+04 2.66804E+03 2.62843E+03 7.81443E+03-7.52764E+01-4.51102E+01
 -1      1490 2.41018E+04 6.19373E+02 5.86347E+02 7.46049E+03-6.92135E+01 5.10250E+01
 -1      1491 2.44547E+04 7.61366E+02 5.87193E+02 7.69225E+03-6.51131E+01-7.03793E+01
 -1      1492 2.36193E+04 4.75288E+02 2.08016E+02 7.37882E+03-2.35980E+02 2.48581E+02
 -1      1493 2.23562E+04 3.35935E+02 6.73737E+02 6.22947E+03 1.05770E+02-1.56822E+02
 -1      1494 2.34924E+04 8.20774E+02 9.07884E+02 7.17034E+03 1.14280E+02-1.56996E+02
 -1      1495 2.09662E+04 1.28800E+03 2.14106E+03 6.08067E+03 9.54122E+01-3.33255E+02
 -1      1496 2.29411E+04 1.27680E+03 1.39508E+03 7.04305E+03-1.80198E+02 4.05911E+02
 -1      1497 2.10713E+04 5.08142E+02 9.99280E+02 6.08539E+03-1.66644E+02 2.76360E+02
 -1      1498 2.80593E+04 1.23102E+03 2.58704E+03 4.08770E+03 3.30472E+01-1.88244E+01
 -1      1499 1.69098E+04-1.24940E+00 8.91221E+01 2.90157E+03-3.55403E+02 8.54366E+02
 -1      1500 1.47606E+04 2.89510E+02 4.21440E+02 2.73338E+03-2.88109E+02 1.23749E+03
 -1      1501 1.89889E+04 4.33328E+03 1.94881E+03 4.93930E+03-7.46277E+01 2.02213E+03
 -1      1502 1.79947E+04 3.62678E+03 4.05199E+03 4.39700E+03-2.99640E+02 2.59935E+03
 -1      1503 1.97146E+04 1.87159E+03 6.59471E+02 5.11898E+03-2.16636E+02 1.09858E+03
 -1      1504 2.23714E+04 2.74637E+03 1.00942E+03 6.53031E+03-1.93393E+02 1.25767E+03
 -1      1505 2.12131E+04 2.15372E+03 1.49746E+03 6.04985E+03-4.07846E+02 1.54508E+03
 -1      1506 2.09803E+04 5.08471E+03 4.49296E+03 5.91235E+03-2.55179E+02 2.67793E+03
 -1      1507 2.95062E+04 1.19884E+03 2.13278E+03 3.83788E+03-2.94975E+01-8.77953E+02
 -1      1508 2.69787E+04 7.62625E+02 1.21894E+03 3.62898E+03-6.54885E+01-2.92217E+02
 -1      1509 2.55239E+04 1.90005E+03 7.41961E+02 7.38073E+03-5.83864E+00 2.48022E+02
 -1      1510 1.06436E+04 2.36440E+03 2.92349E+03 7.12107E+02 1.65708E+02-2.25568E+03
 -1      1511 1.48919E+04 2.09504E+03 1.64599E+03 2.46404E+03 2.33379E+02-1.82909E+03
 -1      1512 2.38170E+04 4.70762E+02 1.99391E+02 7.42197E+03-2.38449E+02 1.74491E+02
 -1      1513 2.20837E+04 7.44675E+02 1.02971E+03 6.55935E+03 3.08203E+02-7.60060E+02
 -1      1514 2.89929E+04 1.03498E+03 2.42230E+03 3.86081E+03-8.88557E+00-6.44959E+02
 -1      1515 2.42420E+04 6.08020E+02 5.85359E+02 7.37364E+03 3.63817E+01-6.85131E+01
 -1      1516 2.46839E+04 7.22546E+02 5.64965E+02 7.60333E+03-2.80410E+01 1.87126E+02
 -1      1517 2.57761E+04 8.71611E+02 1.79240E+03 6.83720E+03 5.43569E+01 3.90210E+01
 -1      1518 1.67150E+04 1.86764E+03 2.84383E+03 3.99543E+03 1.69802E+02-8.36983E+02
 -1      1519 1.53789E+04 5.28718E+02 1.02263E+03 3.45373E+03 1.85479E+02-7.23981E+02
 -1      1520 9.85801E+03 1.28797E+03 2.14970E+03 9.99486E+02-4.74473E+01-8.25408E+02
 -1      1521 1.56063E+04 1.35813E+03 2.43419E+03 3.46945E+03 4.85720E+01-3.71364E+02
 -1      1522 1.40653E+04 2.02051E+02 5.34723E+02 2.71760E+03 7.48561E+01-3.48727E+02
 -1      1523 2.04979E+04 2.96039E+02 1.14689E+03 5.73877E+03 7.53643E+01-2.26358E+02
 -1      1524 2.28431E+04 3.56646E+02 4.87428E+01 8.03704E+03 4.67842E+01-1.13132E+02
 -1      1525 1.88459E+04 4.69060E+03 5.14127E+03 4.80313E+03-1.45323E+02 9.92123E+02
 -1      1526 2.19067E+04 2.94008E+03 3.19315E+03 6.55609E+03-1.99988E+02 7.29727E+02
 -1      1527 1.96877E+04 1.54515E+03 2.40272E+03 5.40090E+03-1.47231E+02 6.67326E+02
 -1      1528 1.26159E+04 1.75972E+02 7.05164E+02 2.36642E+03 1.36234E+02-1.15185E+03
 -1      1529 1.46112E+04 1.69837E+03 2.79286E+03 2.95120E+03 1.64560E+02-1.44253E+03
 -1      1530 1.93677E+04 4.57697E+02 1.15334E+03 5.29467E+03 5.14027E+02-9.99111E+02
 -1      1531 9.89633E+03 1.40058E+03 2.18266E+03 1.00515E+03 2.81009E+01 8.37861E+02
 -1      1532 1.30980E+04 4.29176E+02 9.78642E+02 2.49701E+03-1.45646E+02 1.22602E+03
 -1      1533 1.50709E+04 1.89051E+03 3.04473E+03 3.03644E+03-1.65380E+02 1.43191E+03
 -1      1534 1.55547E+04 1.32490E+03 2.46341E+03 3.43330E+03-1.12315E+02 4.49012E+02
 -1      1535 1.84997E+04 5.82239E+02 1.21345E+03 4.88617E+03-2.91377E+02 7.14975E+02
 -1      1536 1.40449E+04 2.06094E+02 5.65885E+02 2.69425E+03-6.75662E+01 4.19557E+02
 -1      1537 1.58639E+04 2.11953E+03 3.01092E+03 3.37974E+03-2.42952E+02 1.40902E+03
 -1      1538 1.91885E+04 6.31582E+02 1.55857E+03 5.17337E+03-2.84708E+02 7.94156E+02
 -1      1539 1.53377E+04 1.80861E+03 3.02800E+03 3.38923E+03-8.35217E+01 5.08731E+02
 -1      1540 1.65451E+04 3.71833E+03 4.21499E+03 3.59742E+03-1.26012E+02 1.12016E+03
 -1      1541 1.97590E+04 1.57395E+03 1.99043E+03 5.43875E+03-4.29713E+02 1.30122E+03
 -1      1542 2.36554E+04 2.26725E+03 2.09221E+03 7.37816E+03-2.19185E+02 5.81514E+02
 -1      1543 2.17188E+04 5.31827E+03 5.22743E+03 6.52437E+03-5.33333E+01 1.15172E+03
 -1      1544 2.04288E+04 3.74341E+03 4.04726E+03 5.82143E+03-1.43252E+02 1.32231E+03
 -1      1545 1.97666E+04 4.82909E+03 5.18196E+03 5.32613E+03-8.53242E+01 8.72278E+02
 -1      1546 2.30283E+04 3.10976E+03 3.20718E+03 7.09388E+03 1.97299E+01 3.28305E+02
 -1      1547 2.28582E+04 6.53462E+02 5.83139E+02 7.06136E+03 1.29742E+02-3.61665E+02
 -1      1548 2.17411E+04 9.22105E+01 4.24588E+02 6.12772E+03 2.65326E+02-5.36158E+02
 -1      1549 2.33010E+04 3.23790E+03 3.26459E+03 7.30725E+03 6.10685E+01-2.84150E+02
 -1      1550 2.37875E+04 1.69563E+03 1.29916E+03 7.79961E+03 1.09051E+02-4.42523E+02
 -1      1551 2.42494E+04 1.71499E+03 1.55659E+03 7.80610E+03 2.72553E+01-2.50864E+02
 -1      1552 2.39895E+04 1.50530E+03 1.17844E+03 7.88791E+03-2.09884E+01 1.82628E+02
 -1      1553 2.62554E+04 2.16839E+03 1.06564E+03 7.45910E+03 8.58298E+00-4.67683E+02
 -1      1554 2.31597E+04 3.96908E+02 3.51889E+01 6.76340E+03-1.41925E+02 2.35238E+02
 -1      1555 1.82424E+04 2.75617E+03 3.45199E+03 4.58756E+03 1.67188E+02-1.16614E+03
 -1      1556 1.62997E+04 2.59974E+03 3.22352E+03 3.60809E+03 2.24939E+02-1.67156E+03
 -1      1557 2.18898E+04 5.51207E+03 5.48798E+03 6.76019E+03-1.29396E+02 9.05411E+02
 -1      1558 2.35294E+04 3.00300E+03 2.77109E+03 7.40147E+03-1.82486E+02 9.20075E+02
 -1      1559 2.14736E+04 6.05848E+01 1.03080E+02 3.55441E+03-5.80252E+01 2.19384E+02
 -1      1560 2.07239E+04 1.21083E+02-2.74200E+01 4.09046E+03-1.91878E+02 5.52998E+02
 -1      1561 2.13771E+04 1.75510E+02-4.00195E+01 3.14567E+03-1.82908E+02 4.41707E+02
 -1      1562 2.24739E+04 2.59618E+02 5.64492E+01 7.88409E+03 1.78088E+02-4.09924E+01
 -1      1563 2.22775E+04 9.27929E+02 1.38681E+02 7.75407E+03 2.04417E+02-1.22207E+02
 -1      1564 2.37003E+04 8.50332E+02 1.04599E+02 7.88108E+03 1.59052E+02-2.28758E+02
 -1      1565 2.27885E+04 1.02264E+03 5.81567E+02 7.34934E+03 1.97828E+02-6.17342E+02
 -1      1566 2.30539E+04 2.25214E+03 1.27534E+03 7.25681E+03 2.36505E+02-1.07595E+03
 -1      1567 2.14580E+04 1.11399E+03 5.86047E+02 7.14848E+03 1.99107E+02-5.93996E+02
 -1      1568 2.35288E+04 4.75992E+02 8.61200E+01 6.60657E+03-9.55640E+01 3.05110E+02
 -1      1569 2.52275E+04 1.72366E+03 9.67604E+02 7.58784E+03 3.14356E+01-1.85561E+02
 -1      1570 2.36860E+04 1.64369E+03 3.20793E+02 7.77808E+03 5.36091E+01-1.19431E+02
 -1      1571 2.42267E+04 9.24591E+02 3.94917E+02 7.21720E+03-5.23572E+01-3.18007E+00
 -1      1572 2.37672E+04-1.31037E+02-7.77104E+01 2.52707E+03 1.72813E+02-4.24001E+02
 -1      1573 2.18947E+04-2.45097E+01-1.59917E+02 2.49823E+03 1.20535E+02-5.59902E+02
 -1      1574 2.45394E+04 4.80496E+02 3.30012E+02 5.75672E+03 1.38260E+02-1.95583E+02
 -1      1575 2.57220E+04 3.85227E+02 5.11632E+02 3.58895E+03 1.60888E+02-2.12924E+02
 -1      1576 2.26707E+04 5.33649E+03 2.96885E+03 7.03156E+03 3.49065E+01-2.59622E+03
 -1      1577 2.27140E+04 1.51112E+03-6.99118E+01 7.75636E+03 1.71243E+02-1.91439E+02
 -1      1578 1.90025E+04 2.98000E+03 3.42451E+03 5.01116E+03-2.10436E+02 1.34029E+03
 -1      1579 1.83883E+04 4.26663E+03 4.68808E+03 4.54634E+03-1.01660E+02 9.83269E+02
 -1      1580 2.14350E+04 3.14701E+01 4.44895E+01 3.50322E+03 5.41532E+01-2.43456E+02
 -1      1581 2.09057E+04 1.02211E+02-9.29270E+01 3.40260E+03 2.02330E+02-5.30641E+02
 -1      1582 2.34282E+04-1.39133E+02-1.06312E+02 2.57273E+03 1.09051E+02-3.94835E+02
 -1      1583 2.70232E+04 8.06901E+02 7.92441E+02 3.75320E+03 7.66821E+01 8.16482E+01
 -1      1584 2.33073E+04-7.55135E+01-1.53277E+00 3.31332E+03 2.38824E+02-4.73609E+02
 -1      1585 2.16474E+04 4.18477E+01-5.10597E+00 7.08858E+03 2.23372E+02-1.69744E+02
 -1      1586 2.17030E+04 6.94339E+02 5.07750E+02 6.25837E+03 3.57147E+02-7.37625E+02
 -1      1587 3.29435E+04 1.19389E+03 4.41100E+03 5.22039E+03-3.52621E+02 1.37861E+03
 -1      1588 2.79934E+04 6.96653E+03 6.76480E+03 8.45421E+03-2.01900E+02 1.70212E+03
 -1      1589 3.20639E+04 3.08869E+03 8.27632E+03 5.86273E+03-1.15408E+02 1.52833E+03
 -1      1590 3.25769E+04 1.97522E+03 5.35945E+03 5.62560E+03-3.19358E+01 5.83365E+02
 -1      1591 2.77869E+04 7.64300E+03 7.78231E+03 8.78720E+03-1.75897E+01 6.75475E+02
 -1      1592 2.56538E+04-7.85990E+01 4.54397E+02 3.14049E+03-1.51765E+02-7.21125E+01
 -1      1593 1.70517E+04 2.43732E+02 4.58783E+02 3.60653E+03 2.66607E+02-7.45887E+02
 -1      1594 1.47579E+04 1.59322E+02 2.60733E+02 2.44793E+03 3.12910E+02-1.19919E+03
 -1      1595 2.09419E+04 5.12940E+03 4.60086E+03 6.12473E+03-2.03144E+02 1.85281E+03
 -1      1596 2.28817E+04 1.89033E+03 1.37167E+03 7.07998E+03-2.84525E+02 1.09371E+03
 -1      1597 2.40233E+04 3.29973E+03 2.71037E+03 7.68459E+03-2.75882E+02 1.07878E+03
 -1      1598 2.44550E+04 1.99114E+03 1.08789E+03 7.32224E+03-1.07293E+02 6.67745E+02
 -1      1599 2.57170E+04 3.92744E+03 2.37205E+03 7.78160E+03-2.11779E+02 1.70536E+03
 -1      1600 1.39308E+04 4.72424E+02 9.46533E+02 2.88056E+03-1.73106E+02 1.18536E+03
 -1      1601 9.85655E+03 1.53605E+03 2.18948E+03 9.54892E+02 6.60251E+00 8.22940E+02
 -1      1602 1.36046E+04 4.20842E+02 9.26590E+02 2.73826E+03-5.27952E+01 4.71848E+02
 -1      1603 2.41221E+04 3.55822E+03 3.33367E+03 7.68921E+03 9.43739E+01-1.32350E+02
 -1      1604 1.83028E+04-1.57361E+02-7.28680E+01 2.84461E+03-4.75920E+01 3.79083E+02
 -1      1605 2.12549E+04 6.82512E+02 1.22140E+03 6.14746E+03-1.06253E+02 3.24256E+02
 -1      1606 2.19761E+04 2.14670E+02 7.61391E+02 5.58917E+03-5.23831E+00 9.06180E+01
 -1      1607 2.23674E+04 2.02692E+03 2.06975E+03 6.78792E+03 1.77839E+02-6.15914E+02
 -1      1608 2.35207E+04 1.30561E+03 2.27121E+02 7.80142E+03-2.86841E+00 7.17918E+01
 -1      1609 2.80282E+04 1.12989E+03 1.83503E+03 4.69965E+03 6.99973E+01 4.79285E+02
 -1      1610 1.79360E+04-2.96210E+01 8.88191E+01 2.87123E+03-8.32586E+01 3.90998E+02
 -1      1611 1.58391E+04 2.42601E+02 3.82740E+02 3.05939E+03-3.42970E+02 1.12610E+03
 -1      1612 1.83478E+04 1.68932E+02 1.30138E+02 4.15044E+03-2.34576E+02 7.34578E+02
 -1      1613 1.54793E+04 1.13753E+02 5.62341E+02 2.95427E+03-1.21542E+02 6.78009E+02
 -1      1614 1.86936E+04 2.86751E+03 3.76736E+03 4.86584E+03 1.08301E+02-6.45882E+02
 -1      1615 2.57884E+04 1.07911E+03 8.71060E+02 6.20059E+03-1.42467E+02-1.91512E+02
 -1      1616 1.83375E+04 4.55261E+03 2.28847E+03 3.27233E+03 1.30642E+02-2.78775E+03
 -1      1617 1.90075E+04 4.86320E+03 2.98148E+03 3.90579E+03 3.10179E+02-2.83170E+03
 -1      1618 1.66642E+04 3.76075E+03 4.30198E+03 3.79879E+03 1.09188E+02-2.41738E+03
 -1      1619 1.91343E+04 2.40147E+03 1.92169E+03 4.16528E+03 3.01909E+02-1.88074E+03
 -1      1620 3.15046E+04 2.87478E+03 7.87650E+03 5.60837E+03-5.77804E+01-1.65050E+03
 -1      1621 2.77615E+04 6.64485E+03 7.30701E+03 8.66498E+03-1.38458E+02-6.23650E+02
 -1      1622 2.83248E+04 7.20815E+03 7.14838E+03 8.63720E+03 8.02802E+01-1.76923E+03
 -1      1623 2.29708E+04 3.57932E+02 1.31825E+02 8.06232E+03-2.25569E+01 9.63914E+01
 -1      1624 2.26581E+04 1.91228E+02 1.71306E+02 8.16098E+03 4.46112E+01 4.09319E+00
 -1      1625 2.34136E+04 8.43271E+02 5.68519E+02 7.39385E+03-2.05792E+02 3.93147E+02
 -1      1626 2.24366E+04 8.25694E+01 5.82618E+01 6.99152E+03-1.23794E+02 2.55002E+02
 -1      1627 2.27104E+04 6.46426E+02 8.82502E+01 7.87728E+03 5.90154E+01-8.08590E+01
 -1      1628 2.77939E+04 6.53323E+03 7.33939E+03 8.69031E+03 8.37050E+01 8.00815E+02
 -1      1629 2.60405E+04 6.09228E+03 6.42164E+03 7.75576E+03-1.48289E+01 1.23312E+03
 -1      1630 2.78901E+04 7.81396E+03 7.36197E+03 9.20225E+03 3.31626E+01 1.88203E+03
 -1      1631 2.61327E+04 6.78645E+03 6.13082E+03 7.91045E+03 1.03263E+01 2.39767E+03
 -1      1632 1.87043E+04 4.40596E+03 4.91604E+03 4.75303E+03-8.25156E+01 4.03259E+02
 -1      1633 1.70368E+04 3.58897E+03 4.13788E+03 3.88696E+03-1.48848E+02 5.68078E+02
 -1      1634 3.44029E+04 4.74792E+03 9.48497E+03 7.29331E+03 8.10569E+02 2.55178E+03
 -1      1635 1.58544E+04 3.46987E+03 3.66437E+03 2.79432E+03 1.16334E+02-2.81375E+03
 -1      1636 1.67015E+04 1.20956E+03 1.97717E+03 3.86196E+03 4.67185E+02-1.71069E+03
 -1      1637 1.74346E+04 1.70553E+03 4.24072E+02 3.38452E+03 1.92948E+02-1.53498E+03
 -1      1638 2.64802E+04 2.34453E+03 1.13013E+03 7.46731E+03 5.57661E+00-6.25862E+02
 -1      1639 3.27437E+04 2.10943E+03 5.41078E+03 5.30536E+03-1.19084E+02 4.46636E+02
 -1      1640 3.12051E+04 2.67523E+03 7.94084E+03 5.35741E+03 2.08717E+02 1.78005E+03
 -1      1641 3.27851E+04 2.07327E+03 5.32124E+03 5.32652E+03-4.18961E+02 1.42476E+03
 -1      1642 2.23461E+04 7.39255E+01 9.73301E+01 7.06195E+03-1.17001E+02 2.23345E+02
 -1      1643 2.35460E+04 5.31731E+02 1.35060E+02 7.07737E+03-8.24771E+01 8.16635E+00
 -1      1644 2.27014E+04 4.97094E+02 1.07024E+02 7.87798E+03 2.13861E+01-9.20031E-01
 -1      1645 1.58749E+04 2.23468E+01 1.87462E+02 2.84604E+03-1.24129E+02 6.31292E+02
 -1      1646 2.17833E+04 6.24325E+02 4.93060E+02 7.07879E+03-2.77245E+02 3.39133E+02
 -1      1647 2.25243E+04 4.70523E+02 9.25963E+01 7.89795E+03-1.53934E+02-2.26236E+01
 -1      1648 2.23107E+04 1.53534E+03 7.76476E+02 7.56575E+03-1.73887E+02 6.78093E+02
 -1      1649 2.35335E+04 1.68947E+03 6.32884E+02 7.86777E+03-1.32720E+02 5.90258E+02
 -1      1650 2.77736E+04 5.28912E+02 1.28166E+03 3.68421E+03 1.16197E+02 2.35274E+02
 -1      1651 2.76309E+04 1.04302E+03 1.22430E+03 4.00708E+03 6.15306E+01 2.65911E+02
 -1      1652 2.97178E+04 1.47291E+03 2.55877E+03 4.24062E+03 4.86454E+01 1.01639E+03
 -1      1653 2.21848E+04 6.01061E+03 2.35114E+03 7.37142E+03 3.84915E+01 2.37577E+03
 -1      1654 2.58128E+04 3.84936E+03 9.41373E+02 7.52679E+03-3.30465E+02 1.02368E+03
 -1      1655 2.41016E+04 3.91256E+03 1.35659E+03 7.38299E+03-2.17274E+02 1.22615E+03
 -1      1656 1.68275E+04 3.69056E+01 6.56860E+01 2.76889E+03-4.78274E+01 2.70266E+02
 -1      1657 2.01893E+04 8.86614E+02 1.89140E+03 5.74458E+03-1.45061E+01 7.20669E+01
 -1      1658 2.38623E+04 1.07820E+03 4.89606E+02 7.67931E+03-6.71860E+01 8.60794E+01
 -1      1659 2.28957E+04 1.76733E+03 6.61988E+02 7.79935E+03-2.25615E+02 4.74194E+02
 -1      1660 2.68107E+04 3.94052E+02 1.16949E+03 3.61117E+03 5.59789E+01 3.31136E+01
 -1      1661 2.50527E+04 4.63786E+02 5.38201E+02 3.53368E+03 1.66544E+02-1.75628E+02
 -1      1662 2.55745E+04 9.72604E+01 9.66353E+02 3.47247E+03 6.70169E+01 3.81364E+01
 -1      1663 2.37421E+04 1.13248E+02 3.42143E+02 3.42436E+03 1.09194E+02-1.07909E+02
 -1      1664 2.07424E+04-7.93395E+01 3.50237E+01 6.22738E+03 2.80839E+02-2.04755E+02
 -1      1665 2.04412E+04 9.95921E+02 6.21839E+02 6.27192E+03 2.87695E+02-6.40731E+02
 -1      1666 1.67754E+04 3.53108E+01 1.28258E+02 2.98957E+03-3.16658E+02 9.43209E+02
 -1      1667 1.64053E+04-1.40203E+02-1.65558E+02 2.48006E+03-1.55159E+02 4.34885E+02
 -1      1668 1.96754E+04 3.86942E+01-9.51230E+01 3.07825E+03-2.36271E+02 5.88159E+02
 -1      1669 1.85709E+04 3.78326E+03 3.83873E+03 4.72550E+03 2.43476E+02-1.74833E+03
 -1      1670 1.89821E+04 4.06797E+03 4.43200E+03 4.97805E+03 2.24986E+02-1.21524E+03
 -1      1671 2.12488E+04 1.30505E+03 1.62453E+03 6.17602E+03 3.19513E+02-1.00163E+03
 -1      1672 1.95005E+04 1.39366E+03 1.21495E+03 5.36976E+03 4.42401E+02-1.35579E+03
 -1      1673 2.35633E+04 4.83898E+02 3.58464E+02 7.06324E+03 1.15332E+02-6.40024E+01
 -1      1674 2.37531E+04 9.14555E+02 2.99245E+02 7.42556E+03-1.74169E+01 2.30793E+01
 -1      1675 2.28580E+04 6.87518E+02 1.28879E+02 8.05001E+03-4.46461E+01-7.14050E+01
 -1      1676 2.28396E+04 2.94862E+02 1.54312E+02 7.83666E+03 3.17674E+01-9.58920E+01
 -1      1677 1.91009E+04 3.87352E+02 3.76137E+02 5.61628E+03-3.53680E+02 4.62832E+02
 -1      1678 2.60186E+04 1.24118E+03 8.03992E+02 6.07665E+03 3.81974E+01 4.79067E+02
 -1      1679 2.84185E+04 1.15785E+03 2.67759E+03 4.11962E+03 6.03745E+00 1.79822E+02
 -1      1680 8.13466E+03 8.03228E+02 1.51483E+03 6.69432E+02 7.60805E+01-1.02923E+03
 -1      1681 7.41145E+03 1.19129E+03 1.85507E+03 2.84062E+02 5.59167E+01-1.49310E+03
 -1      1682 1.17816E+04 5.87453E+02 1.09895E+03 2.15377E+03 1.92805E+02-1.49673E+03
 -1      1683 1.35082E+04 1.36362E+03 2.33600E+03 2.52275E+03 2.25514E+02-1.59058E+03
 -1      1684 3.15036E+04 1.92412E+03 4.70242E+03 4.95092E+03-3.12482E+01-3.27493E+01
 -1      1685 1.98414E+04-2.01622E+01 2.59017E+02 5.28293E+03 4.32296E+02-7.76763E+02
 -1      1686 1.82856E+04 2.47701E+02 3.12266E+02 5.31278E+03 3.10048E+02-5.16312E+02
 -1      1687 2.18869E+04 2.95450E+01-1.09773E+02 3.27055E+03-1.65046E+02 5.13616E+02
 -1      1688 1.91590E+04 4.45725E+03 2.08989E+03 4.91090E+03 8.61713E+01-2.20471E+03
 -1      1689 1.95937E+04 2.40512E+03 1.58973E+03 5.12275E+03 2.17938E+02-1.44047E+03
 -1      1690 2.17696E+04 5.68458E+03 5.16329E+03 6.58468E+03 1.49982E+02-1.80841E+03
 -1      1691 2.23126E+04 4.85686E+03 3.93328E+03 6.73046E+03 3.21073E+02-2.12492E+03
 -1      1692 2.25703E+04 1.52965E+02 1.11549E+02 3.45289E+03 2.92582E+01-6.56519E+01
 -1      1693 2.29868E+04 2.05476E+03 7.95901E+02 7.82515E+03-1.42796E+02 6.47295E+02
 -1      1694 2.13933E+04 5.26261E+03 5.38374E+03 6.41083E+03-6.59179E+01 1.34750E+02
 -1      1695 2.15171E+04 5.80381E+03 5.66400E+03 6.44302E+03 6.93901E+01-6.06629E+02
 -1      1696 2.02401E+04 5.11619E+03 5.11829E+03 5.58628E+03 9.97509E+01-9.16643E+02
 -1      1697 1.10544E+04 1.65063E+03 2.38041E+03 1.21801E+03 2.16160E+02-2.16296E+03
 -1      1698 1.28587E+04 8.04107E+01 1.23374E+01 2.13242E+03 2.45525E+02-1.10354E+03
 -1      1699 2.26512E+04 1.18606E+03 2.82773E+02 7.99107E+03 1.38627E+02-6.65112E+01
 -1      1700 2.25233E+04 7.05461E+01 6.73242E+01 3.41635E+03-2.46586E+01 5.49541E+01
 -1      1701 1.78986E+04 3.05793E+01 8.94345E+00 3.42177E+03 1.84217E+02-5.75141E+02
 -1      1702 1.70880E+04 2.28140E+02 1.49484E+02 3.40542E+03 2.82999E+02-8.48374E+02
 -1      1703 1.57641E+04 4.48283E+02 8.71564E+02 2.84676E+03 1.99620E+02-8.06961E+02
 -1      1704 1.52658E+04 6.08124E+02 1.02982E+03 2.80036E+03 2.74783E+02-1.14914E+03
 -1      1705 1.95435E+04 7.40055E+02 1.36063E+03 5.51785E+03 3.74791E+02-1.16542E+03
 -1      1706 1.76728E+04 3.76372E+03 4.46870E+03 4.16193E+03-4.07375E+01 4.00461E+01
 -1      1707 1.65287E+04 1.85811E+03 2.84553E+03 3.90754E+03-5.13591E+00 1.03880E+01
 -1      1708 2.20618E+04 5.89648E+03 5.59223E+03 6.79488E+03 6.68461E+01-1.31076E+03
 -1      1709 2.21402E+04-1.85393E+02-3.19470E+01 3.31506E+03-1.81099E+02 3.41287E+02
 -1      1710 2.17382E+04-1.30889E+02-2.47390E+01 6.10153E+03-1.78174E+02 3.48297E+02
 -1      1711 1.64137E+04 9.29636E+01 4.12771E+02 2.89420E+03-1.73777E+00-1.25820E+02
 -1      1712 1.98673E+04 3.48947E+02 9.07797E+02 5.63076E+03 1.32714E+02-2.80404E+02
 -1      1713 1.84342E+04 1.02318E+03 2.13729E+03 4.81831E+03 1.60689E+02-5.87280E+02
 -1      1714 1.61921E+04 2.15647E+03 3.30605E+03 3.85922E+03-1.20524E+01 8.47832E+01
 -1      1715 2.52416E+04 5.87968E+03 6.14502E+03 7.56665E+03-2.90050E+01 4.30173E+02
 -1      1716 2.26408E+04 1.65994E+02 1.34265E+02 8.25125E+03-5.53198E+00-9.19526E-01
 -1      1717 2.23498E+04 1.80586E+02 5.47075E+01 7.64701E+03 1.10514E+02-6.29903E+01
 -1      1718 3.07050E+04 3.94723E+03 8.13110E+03 6.22403E+03-3.34997E+02-9.13787E+02
 -1      1719 2.67702E+04 7.24407E+03 7.44875E+03 8.93439E+03 5.39925E+00 4.01179E+00
 -1      1720 1.83907E+04-9.08134E+01-4.55654E+01 3.32629E+03-1.56341E+02 4.35896E+02
 -1      1721 2.15359E+04-2.49455E+02-1.05942E+02 6.82249E+03-1.98597E+02 2.02472E+02
 -1      1722 1.49394E+04 1.94072E+03 2.76521E+03 3.01942E+03 3.81539E+02-1.99719E+03
 -1      1723 2.29532E+04 1.00006E+03 5.46352E+02 7.28658E+03 2.43057E+02-4.51082E+02
 -1      1724 2.24912E+04 9.17657E+02 1.68139E+02 8.12549E+03 9.68544E+01 9.99104E+01
 -1      1725 1.83724E+04-1.05579E+02-1.24785E+01 3.38786E+03 1.58527E+02-4.47413E+02
 -1      1726 1.64408E+04-1.10432E+02-9.23181E+01 2.54310E+03 1.65982E+02-4.79558E+02
 -1      1727 1.83948E+04 6.39550E+01 4.55475E+01 3.36232E+03 2.97106E+02-7.34249E+02
 -1      1728 1.95429E+04-3.45924E+00 1.37193E+02 5.38339E+03 3.33482E+02-4.23293E+02
 -1      1729 2.01645E+04 1.57582E+03 2.74672E+02 5.37901E+03-1.48666E+02 1.01137E+03
 -1      1730 2.23264E+04 2.69333E+03 7.98695E+02 6.47795E+03-2.36926E+02 1.36259E+03
 -1      1731 2.16925E+04 2.04323E+03 1.31805E+03 6.32793E+03-3.69608E+02 1.29097E+03
 -1      1732 2.13989E+04 1.59979E+03 8.77516E+02 6.87971E+03-1.94147E+02 7.27019E+02
 -1      1733 2.93068E+04 3.28310E+03 7.20080E+03 5.31920E+03 1.61786E+01-2.45185E+01
 -1      1734 3.06651E+04 3.84319E+03 8.08753E+03 6.28775E+03 3.65143E+02 9.16909E+02
 -1      1735 2.76014E+04 7.01565E+02 9.99270E+02 3.61632E+03-2.13470E+01-3.05464E+02
 -1      1736 2.39340E+04-5.26918E+01 3.01016E+01 2.96571E+03-1.97224E+02 4.25345E+02
 -1      1737 2.63287E+04 2.54525E+03 1.21834E+03 7.56784E+03-8.40610E+00 7.41377E+02
 -1      1738 2.46004E+04 1.11745E+03 4.21760E+02 7.06493E+03 1.68494E+01-3.25572E+01
 -1      1739 2.36753E+04 2.47556E+03 7.42790E+02 7.63104E+03-1.31842E+02 6.11539E+02
 -1      1740 4.01166E+04 5.54124E+03 9.40299E+03 6.90928E+03-1.29555E+02-6.94943E+03
 -1      1741 3.46309E+04 5.54984E+03 7.62845E+03 7.17824E+03-9.87819E+02-5.44492E+03
 -1      1742 1.89756E+04-1.40451E+01 8.21146E+01 2.80087E+03 7.61065E+00 6.53923E+01
 -1      1743 2.05093E+04-8.38809E+01-1.15573E+02 3.30756E+03-1.62536E+02 4.73920E+02
 -1      1744 2.23709E+04 4.91268E+02 1.51173E+02 8.02968E+03 1.21455E+02-1.02174E+02
 -1      1745 2.51289E+04 6.53722E+03 6.55910E+03 7.71863E+03-8.60501E+00 3.75746E+02
 -1      1746 9.12387E+03 1.50339E+03 2.32666E+03 7.36707E+00-1.81285E+02 2.46459E+03
 -1      1747 1.08607E+04 2.41210E+03 3.00336E+03 7.79961E+02-1.99693E+02 2.28423E+03
 -1      1748 2.15248E+04 1.54380E+03 1.69856E+03 6.38878E+03-2.74984E+02 8.19942E+02
 -1      1749 2.62928E+04 1.10866E+03 6.16422E+02 6.08052E+03-3.16823E+01-3.41585E+02
 -1      1750 2.30008E+04 3.12424E+00 5.16726E+01 5.37968E+03-1.65873E+02 4.73566E+02
 -1      1751 4.06743E+04 6.17242E+03 1.01317E+04 7.14415E+03-6.81570E+01-6.65182E+03
 -1      1752 3.50771E+04 6.10463E+03 8.18862E+03 7.44500E+03-7.25735E+02-5.46966E+03
 -1      1753 1.63159E+04 1.31919E+02 2.92702E+02 2.83838E+03-5.78403E+01 3.02960E+02
 -1      1754 1.07441E+04 1.02033E+03 1.75768E+03 1.28678E+03 1.33853E+01 3.10633E+02
 -1      1755 1.45855E+04 8.38922E+01 5.89390E+02 2.97768E+03-3.60651E+01 7.38468E+01
 -1      1756 1.53355E+04 4.24482E+02 3.08890E+02 3.34450E+03 3.71083E+02-6.89423E+02
 -1      1757 1.70869E+04 5.63863E+02 3.16622E+02 4.34768E+03 3.48605E+02-7.25900E+02
 -1      1758 2.33616E+04 6.18144E+03 5.82171E+03 7.52542E+03 5.01361E+01-1.63998E+01
 -1      1759 2.35817E+04 6.26022E+03 5.88283E+03 7.54992E+03-4.01935E+01 6.87603E+02
 -1      1760 2.50028E+04 5.93701E+03 6.03035E+03 7.57124E+03 3.00202E+01-2.41207E+02
 -1      1761 2.10997E+04 5.18576E+03 4.59964E+03 6.26141E+03-1.67840E+02 1.69372E+03
 -1      1762 2.09436E+04 5.02267E+03 5.17355E+03 6.14660E+03-9.24146E+01 8.92226E+02
 -1      1763 1.96016E+04 5.09069E+03 5.40521E+03 5.35128E+03-1.20489E+02 1.43366E+03
 -1      1764 2.20457E+04 3.08899E+03 2.70470E+03 6.60464E+03-2.16506E+02 1.35492E+03
 -1      1765 1.45848E+04 1.79378E+02 2.11033E+02 3.04479E+03 2.42369E+02-8.12850E+02
 -1      1766 2.17546E+04 5.43298E+03 4.60314E+03 6.48420E+03-3.44550E+02 2.57372E+03
 -1      1767 1.22836E+04 1.71808E+03 2.38674E+03 1.76950E+03 1.81421E+01-6.35041E+00
 -1      1768 1.06902E+04 1.03713E+03 1.79800E+03 1.26237E+03-4.30240E+01-3.33492E+02
 -1      1769 1.52146E+04 1.75818E+03 2.96757E+03 3.38495E+03 5.71505E+01-4.02139E+02
 -1      1770 2.04156E+04 1.67112E+03 2.28737E+03 5.77526E+03 2.55206E+02-1.12568E+03
 -1      1771 2.15813E+04 4.56300E+00-9.02345E+01 3.34912E+03 2.29435E+02-5.78356E+02
 -1      1772 1.98883E+04 6.08968E+01 8.95915E+01 3.51796E+03 1.00553E+02-2.61043E+02
 -1      1773 2.15693E+04 9.94355E+01 6.92690E+01 3.48005E+03 1.59158E+02-3.30761E+02
 -1      1774 1.48110E+04-6.83791E+01-3.88098E+01 2.58459E+03 1.35850E+02-3.86995E+02
 -1      1775 1.68649E+04 1.46138E+02 7.26692E+01 3.36656E+03 3.21338E+02-6.91054E+02
 -1      1776 2.17157E+04 5.55516E+03 4.66488E+03 6.43896E+03-3.25486E+02 2.58004E+03
 -1      1777 2.28894E+04 1.63582E+03-8.92757E+01 7.45615E+03 2.44023E+02-2.89740E+02
 -1      1778 2.12653E+04 4.74713E+03 2.77592E+03 6.42143E+03 2.15855E+02-2.00844E+03
 -1      1779 2.08455E+04 4.86994E+03 4.67309E+03 5.88483E+03 3.57939E+02-2.58512E+03
 -1      1780 2.20106E+04 2.10765E+03 6.21790E+02 6.85809E+03 1.50859E+02-8.70147E+02
 -1      1781 3.40694E+04 4.81118E+03 9.49569E+03 6.70347E+03-5.63074E+02-2.58848E+03
 -1      1782 3.61874E+04 4.42397E+03 1.00662E+04 6.51135E+03 2.89000E+02-2.62113E+03
 -1      1783 3.47625E+04 2.02290E+03 5.28749E+03 5.79527E+03-1.59417E+02-2.30760E+03
 -1      1784 2.91411E+04 6.88776E+03 7.02561E+03 8.84374E+03 4.62852E+02-1.97449E+03
 -1      1785 2.22311E+04 5.68381E+03 5.47427E+03 6.85161E+03-1.59802E+01 3.46065E+02
 -1      1786 2.16335E+04 5.73355E+03 5.62465E+03 6.55484E+03 4.05373E+01-4.80812E+02
 -1      1787 2.28131E+04 6.11298E+03 5.94295E+03 7.16823E+03 7.68704E+01-8.95997E+02
 -1      1788 2.70468E+04 6.86759E+03 6.90513E+03 8.57451E+03-5.70110E+00 1.00317E+02
 -1      1789 2.27918E+04 5.84844E+03 5.60543E+03 7.11293E+03-7.61093E+01 1.17963E+03
 -1      1790 2.19316E+04 5.71430E+03 4.82622E+03 6.78454E+03-1.64060E+02 1.85350E+03
 -1      1791 1.99746E+04 4.53973E+03 4.57360E+03 5.54181E+03 2.02371E+02-1.62331E+03
 -1      1792 2.67824E+04-1.45735E+02-2.17706E+02 1.80380E+03 1.24886E+02-3.37712E+02
 -1      1793 2.49302E+04-1.20777E+02-2.32352E+02 2.67706E+03 1.04433E+02-2.30149E+02
 -1      1794 2.88547E+04 1.12556E+03 1.02229E+03 4.02303E+03 6.59138E+01 3.58467E+02
 -1      1795 2.71044E+04 1.15718E+03 7.08866E+02 5.60727E+03 5.41504E+01 2.72298E+02
 -1      1796 2.68861E+04-6.56523E+00-1.60209E+02 1.98063E+03-1.37977E+02 1.75962E+02
 -1      1797 2.51510E+04-3.05583E+01-1.48323E+02 2.63725E+03-1.29498E+02 2.26461E+02
 -1      1798 2.98811E+04 1.33765E+03 1.46471E+03 3.94187E+03-3.79939E+01-7.70713E+02
 -1      1799 2.86119E+04 1.82889E+03 1.32943E+03 6.04086E+03-7.11724E+01-5.17432E+02
 -1      1800 1.25391E+04 2.00866E+03 1.48937E+03 2.52127E+02-3.05162E+02 1.78501E+03
 -1      1801 1.48966E+04 1.98244E+03 1.41036E+03 1.68940E+03-3.19420E+02 1.85253E+03
 -1      1802 3.66135E+04 1.26073E+03 1.95934E+02 5.67140E+03 4.93818E+02-2.10355E+03
 -1      1803 4.05155E+04 3.32089E+02 5.26588E+02 4.88068E+03 1.07023E+03-1.98694E+03
 -1      1804 1.96035E+04-1.35684E+02-1.05108E+02 2.66245E+03-8.09794E+00 4.12814E+01
 -1      1805 3.48147E+04 8.23878E+03 4.85730E+03 9.00172E+03 1.13557E+02-4.06141E+03
 -1      1806 3.26640E+04 7.83916E+03 5.20145E+03 8.87216E+03 2.39810E+02-4.17690E+03
 -1      1807 1.96925E+04 4.14294E+01-7.36179E+01 3.30719E+03 2.57572E+02-6.97792E+02
 -1      1808 2.10705E+04 2.99275E+02 2.32852E+02 6.82466E+03 2.56859E+02-2.67441E+02
 -1      1809 2.07778E+04-5.39945E+01 1.07225E+02 6.53421E+03 2.72405E+02-3.40333E+02
 -1      1810 2.01074E+04 1.84875E+02 1.84840E+02 5.88797E+03 3.51742E+02-3.73248E+02
 -1      1811 2.61518E+04 8.18285E+03 3.35645E+03 7.66996E+03-3.24096E+01 3.93385E+03
 -1      1812 2.45223E+04 7.27770E+03 3.65320E+03 7.56965E+03 4.66645E+02 3.68707E+03
 -1      1813 2.82212E+04 4.63491E+03 1.17865E+03 7.89516E+03-1.87320E+02 1.72347E+03
 -1      1814 2.70026E+04 7.04762E+03 5.76805E+03 7.94318E+03-3.30473E+02 3.73370E+03
 -1      1815 1.45861E+04-1.99729E+02-1.52762E+02 1.71177E+03-1.78894E+02 4.44131E+02
 -1      1816 1.30536E+04-1.97226E+02-1.12538E+02 1.77330E+03-1.30290E+02 4.04626E+02
 -1      1817 1.48139E+04 2.81788E+02 4.28055E+02 2.71133E+03-3.31869E+02 1.17055E+03
 -1      1818 1.62320E+04 2.58525E+02 3.29201E+02 3.96268E+03-3.37499E+02 7.63875E+02
 -1      1819 2.37965E+04-1.24933E+02-7.54404E+01 2.56462E+03-1.59225E+02 4.00361E+02
 -1      1820 1.76651E+04 4.07641E+03 1.85451E+03 3.13008E+03-1.64986E+02 2.32589E+03
 -1      1821 1.90559E+04 4.24496E+03 1.67023E+03 4.09916E+03-1.71577E+02 2.25728E+03
 -1      1822 1.75815E+04 3.05128E+03 3.17652E+03 3.86430E+03-4.16573E+02 2.58442E+03
 -1      1823 1.93468E+04 1.72232E+03 6.54710E+02 4.43898E+03-2.99474E+02 1.17612E+03
 -1      1824 3.61442E+04 9.63796E+03 5.89377E+03 9.07084E+03 1.26465E+02-4.95211E+03
 -1      1825 3.26684E+04 8.76014E+03 6.23781E+03 9.27835E+03-4.73558E+02-4.35581E+03
 -1      1826 1.30107E+04 1.43405E+02 4.48408E-01 1.95666E+03-4.95138E+01 9.73609E+02
 -1      1827 1.08500E+04 2.77157E+01 1.94716E+02 6.72330E+02 3.34534E+01 1.04191E+03
 -1      1828 3.70342E+04 5.25626E+02 1.32351E+03 4.17253E+03 4.29248E+02-2.38898E+03
 -1      1829 4.25153E+04 1.86612E+03 1.84254E+03 5.50399E+03 5.87981E+02-3.43899E+03
 -1      1830 2.03345E+04 5.13674E+03 5.56469E+03 5.76059E+03-3.27824E+01 1.20501E+02
 -1      1831 1.29773E+04 1.32238E+02 4.65034E+02 2.48482E+03 3.21872E+02-1.44742E+03
 -1      1832 1.69859E+04 3.47127E+02 3.05639E+02 3.82565E+03 4.97621E+02-9.34236E+02
 -1      1833 2.26755E+04 5.94816E+03 5.75467E+03 7.20101E+03-1.43784E+02 4.61540E+02
 -1      1834 2.30579E+04 2.49404E+03 6.72058E+02 7.24576E+03-2.71298E+02 8.66415E+02
 -1      1835 2.47485E+04 6.98380E+03 2.96531E+03 7.58282E+03-2.05003E+02-3.23079E+03
 -1      1836 2.58482E+04 7.79786E+03 3.31158E+03 7.63602E+03-9.26979E+01-3.80640E+03
 -1      1837 2.67626E+04 4.20050E+03 1.15470E+03 7.67002E+03 3.75673E+02-1.36041E+03
 -1      1838 2.85116E+04 5.06093E+03 1.95781E+03 7.69806E+03 1.23852E+02-1.96007E+03
 -1      1839 2.69374E+04 6.90159E+03 5.88399E+03 8.12292E+03-6.53759E+01-3.88396E+03
 -1      1840 2.24740E+04 2.72324E+02 6.35984E+01 7.81497E+03-1.26807E+02 8.61096E+01
 -1      1841 2.13725E+04 5.83142E+03 5.43577E+03 6.43141E+03 2.25018E+02-2.09325E+03
 -1      1842 2.21077E+04 6.04853E+03 5.63154E+03 6.77864E+03 5.75736E+01-1.47069E+03
 -1      1843 2.80476E+04 7.46277E+03 6.81856E+03 8.42824E+03 2.45121E+02 3.33225E+03
 -1      1844 3.03315E+04 7.58217E+03 7.21172E+03 8.30370E+03-1.65264E+02 3.97005E+03
 -1      1845 2.25753E+04 2.87053E+03 2.56774E+03 6.91818E+03 3.01931E+02-1.14530E+03
 -1      1846 3.60604E+04 3.73702E+03 9.64123E+03 6.07438E+03-2.44725E+02-2.34987E+03
 -1      1847 3.67098E+04 4.15746E+03 1.01357E+04 6.59647E+03-2.12266E+02-3.00385E+03
 -1      1848 3.00509E+04 7.40870E+03 7.27012E+03 9.17354E+03-2.27849E+02-2.99531E+03
 -1      1849 3.50846E+04 2.28861E+03 5.54007E+03 5.73640E+03 9.16562E+01-2.01661E+03
 -1      1850 2.77636E+04 1.53925E+03 1.11598E+03 5.72639E+03-3.77457E+01 5.92140E+02
 -1      1851 2.01372E+04 4.94119E+03 3.08896E+03 5.53059E+03-2.40264E+02 2.24510E+03
 -1      1852 2.81643E+04 3.08650E+03 1.76884E+03 7.27580E+03-1.48057E+02 9.80685E+02
 -1      1853 3.02337E+04 1.29073E+03 1.02002E+03 5.12731E+03 1.14170E+02 1.07675E+03
 -1      1854 2.97648E+04 2.68519E+03 9.28892E+02 7.53954E+03-1.46233E+00 1.05449E+03
 -1      1855 2.69422E+04-9.61220E+01-8.38255E+01 1.97905E+03-1.47885E+02 1.78652E+02
 -1      1856 2.55273E+04 4.22730E+01-5.12400E+00 1.82635E+03-9.07315E+01 3.49888E+02
 -1      1857 2.82751E+04 1.47421E+03 1.15136E+03 5.64650E+03-1.19930E+02-4.04654E+02
 -1      1858 2.99733E+04 1.27116E+03 1.55804E+03 3.96106E+03-2.01499E+02-8.38000E+02
 -1      1859 1.81702E+04 4.39461E+03 2.30750E+03 3.33146E+03-4.43871E+01 2.59438E+03
 -1      1860 1.87606E+04 4.79504E+03 2.97021E+03 3.84739E+03-3.54749E+02 2.66241E+03
 -1      1861 1.68000E+04 3.00082E+03 3.22696E+03 3.89360E+03-5.23669E+01 2.53633E+03
 -1      1862 1.91951E+04 1.82773E+03 1.07734E+03 4.04811E+03-3.40342E+02 1.49918E+03
 -1      1863 2.01490E+04 5.10485E+03 3.11129E+03 5.46802E+03-2.65409E+02 2.34716E+03
 -1      1864 2.09589E+04 4.67397E+03 2.67029E+03 6.36827E+03-2.84153E+02 1.90852E+03
 -1      1865 2.28303E+04 2.36543E+03 6.36197E+02 7.29037E+03-2.55492E+02 7.75091E+02
 -1      1866 1.27724E+04-2.04336E+02-1.46679E+02 1.71399E+03-9.76296E+01 3.83635E+02
 -1      1867 1.45088E+04-1.79627E+02-1.56609E+02 1.65405E+03-1.68079E+02 4.87783E+02
 -1      1868 1.66363E+04 7.94123E+01 1.76449E+02 4.21595E+03-3.74558E+02 6.84773E+02
 -1      1869 1.51303E+04 9.78817E+01 2.48322E+02 3.09021E+03-3.13140E+02 9.76532E+02
 -1      1870 2.09448E+04 4.70637E+03 2.65704E+03 6.41012E+03-2.80563E+02 1.84379E+03
 -1      1871 3.15296E+04 8.71331E+02 3.67732E+03 4.77482E+03-8.12757E+00 4.74146E+01
 -1      1872 2.38355E+04 2.97602E+03 3.84613E+02 7.56079E+03 2.35353E+02-7.53350E+02
 -1      1873 1.62291E+04-1.23506E+02-1.64237E+02 2.49155E+03 1.44353E+02-4.67001E+02
 -1      1874 1.85058E+04-1.42951E+02-1.74419E+02 2.44928E+03 1.65458E+02-4.85681E+02
 -1      1875 2.01628E+04-1.17640E+02-4.18425E+01 5.41038E+03 3.11087E+02-3.14647E+02
 -1      1876 1.92801E+04 9.75387E+01-6.88317E+01 3.42248E+03 2.80200E+02-5.67369E+02
 -1      1877 1.91855E+04 4.42559E+03 2.14613E+03 4.85637E+03-5.49138E+01 2.20304E+03
 -1      1878 1.85067E+04 3.42751E+03 3.59570E+03 4.66753E+03-2.83539E+02 2.35691E+03
 -1      1879 3.21836E+04 3.96361E+03 6.72698E+03 5.70916E+03-3.35748E+02-3.88883E+03
 -1      1880 1.13386E+04 1.81193E+03 2.39076E+03 1.24133E+03-1.72951E+02 2.08292E+03
 -1      1881 1.71819E+04 2.81557E+03 3.20049E+03 3.99247E+03-3.91501E+02 1.65023E+03
 -1      1882 1.80836E+04 4.40208E+03 4.79685E+03 4.35618E+03-1.16658E+02 1.59131E+03
 -1      1883 2.15433E+04-3.52902E+01 7.06453E+00 6.15314E+03 2.01250E+02-3.52400E+02
 -1      1884 2.27407E+04 6.19282E+03 2.49788E+03 7.35849E+03 8.34212E+01-2.63544E+03
 -1      1885 1.54118E+04 3.08366E+03 3.78254E+03 3.06032E+03 2.58475E+02-1.89766E+03
 -1      1886 3.29070E+04 4.56916E+03 7.25133E+03 5.86918E+03-1.61811E+02-4.10541E+03
 -1      1887 2.20097E+04 8.15437E+01-7.98993E+01 3.06638E+03-1.97313E+02 5.65445E+02
 -1      1888 2.25369E+04 5.26410E+03 2.93864E+03 7.07235E+03-5.72016E+01 2.40822E+03
 -1      1889 2.24536E+04 6.05608E+03 2.46721E+03 7.27115E+03-1.47181E+02 2.56564E+03
 -1      1890 2.24042E+04 6.06950E+03 4.52484E+03 7.09086E+03-9.00434E+01 2.97916E+03
 -1      1891 2.40654E+04 3.99694E+03 1.34257E+03 7.37219E+03-2.75670E+02 1.31476E+03
 -1      1892 3.25052E+04 7.64188E+02 8.92987E+02 4.42477E+03 1.04420E+02-1.29044E+03
 -1      1893 1.52646E+04 2.11915E+03 1.71953E+03 2.67628E+03-2.51353E+02 1.79687E+03
 -1      1894 2.82584E+04 7.04467E+03 3.54010E+03 8.76604E+03 1.25884E+02-2.71043E+03
 -1      1895 2.03011E+04-1.40569E+02-9.24368E+01 3.36834E+03 1.80881E+02-4.69192E+02
 -1      1896 3.25220E+04 1.12188E+03 1.14695E+03 4.47924E+03 1.22981E+02-1.16164E+03
 -1      1897 1.31050E+04 1.07759E+02-8.62515E+00 2.26995E+03-2.38630E+02 1.01966E+03
 -1      1898 2.85666E+04 6.86976E+03 3.93552E+03 8.77926E+03-1.03886E+02-2.80016E+03
 -1      1899 1.39093E+04 2.60400E+03 3.20266E+03 2.10478E+03 1.76962E+02-2.23212E+03
 -1      1900 2.27762E+04 6.44469E+03 6.01967E+03 7.24163E+03 7.16866E+01-1.01370E+03
 -1      1901 2.04682E+04 4.94139E+03 2.99557E+03 5.55105E+03 3.18785E+02-2.27992E+03
 -1      1902 2.15418E+04 2.11271E+03 7.78990E+02 5.99677E+03 1.90338E+02-1.12884E+03
 -1      1903 1.90918E+04 4.13976E+03 1.78640E+03 4.98063E+03 2.98447E+01-1.99820E+03
 -1      1904 1.96891E+04 4.31220E+03 4.30792E+03 5.34449E+03 2.11130E+02-2.62656E+03
 -1      1905 1.57267E+04-1.82993E+00 3.40575E+01 2.41471E+03 2.84203E+02-1.01143E+03
 -1      1906 1.72989E+04-3.79338E+01 1.82370E+02 4.44705E+03 2.99307E+02-6.05585E+02
 -1      1907 2.24117E+04 3.03491E+03 3.30649E+03 6.75496E+03 4.20483E+01-3.48906E+02
 -1      1908 2.98604E+04-1.03693E+02 6.73436E+02 2.24014E+03-2.20110E+02-7.54479E+02
 -1      1909 3.32931E+04 1.58782E+03 2.98120E+03 4.56505E+03-6.06033E+01-2.06029E+03
 -1      1910 2.89419E+04 3.05007E+03 1.33145E+03 7.59182E+03 1.12971E+02-9.83458E+02
 -1      1911 1.31180E+04 7.45614E+02 1.52118E+03 2.74152E+03 1.15585E+02-1.03701E+03
 -1      1912 2.67118E+04 4.40763E+03 1.53670E+03 7.81223E+03-3.85890E+02 1.49510E+03
 -1      1913 2.75252E+04 8.51883E+03 4.77288E+03 7.92353E+03 4.39172E+02-3.84159E+03
 -1      1914 2.83495E+04 7.52605E+03 6.63427E+03 8.80438E+03 2.40163E+02-3.54096E+03
 -1      1915 2.59093E+04 7.72204E+03 3.21796E+03 7.49376E+03 1.33287E+02-3.79687E+03
 -1      1916 2.81030E+04 7.02172E+03 3.07511E+03 7.65646E+03 2.53138E+02-3.48336E+03
 -1      1917 2.64043E+04 6.65468E+03 5.32031E+03 7.62777E+03 3.40722E+02-3.53882E+03
 -1      1918 2.91103E+04 2.59268E+03 1.00070E+03 7.54911E+03-3.43945E+00-8.83472E+02
 -1      1919 2.84805E+04 4.88633E+03 1.97177E+03 7.93905E+03 1.30209E+02-1.83291E+03
 -1      1920 2.84567E+04 7.68094E+02 6.93521E+01 3.93226E+03-2.33497E+02 7.07552E+01
 -1      1921 3.27644E+04 9.62776E+02 2.55499E+03 4.64275E+03-1.31483E+02-1.82214E+03
 -1      1922 2.78627E+04 6.82166E+03 6.23510E+03 8.55882E+03-1.13955E+01-3.19090E+03
 -1      1923 1.74673E+04 3.06573E+03 2.20943E+03 3.27215E+03 4.38685E+00 2.23726E+03
 -1      1924 1.56158E+04 2.34132E+03 3.10513E+03 3.22448E+03-3.18806E+02 1.96337E+03
 -1      1925 1.77468E+04 5.71055E+02 4.38772E+02 4.03013E+03-5.34974E+02 9.50606E+02
 -1      1926 1.34498E+04-1.69641E+02-2.90143E+02 2.27566E+03-2.41613E+02 3.47304E+02
 -1      1927 2.51711E+04 6.53515E+03 6.62250E+03 7.69761E+03 1.88798E+01-4.27807E+02
 -1      1928 3.35450E+04 4.97778E+03 9.23800E+03 6.76349E+03 6.08997E+02-3.25618E+03
 -1      1929 2.08682E+04-3.82557E+01-2.47227E+01 3.17821E+03-1.71274E+02 4.14259E+02
 -1      1930 1.36490E+04 4.39962E+02 7.46273E+02 2.68587E+03-3.19287E+02 1.48546E+03
 -1      1931 2.95152E+04 7.28028E+03 7.02395E+03 9.13088E+03 1.89485E+01 2.85189E+03
 -1      1932 3.42581E+04 1.92952E+03 5.03263E+03 5.51608E+03-2.36181E+02 1.96448E+03
 -1      1933 3.54096E+04 3.35013E+03 9.43651E+03 6.11019E+03 9.67763E+01 3.07294E+03
 -1      1934 3.20755E+04 8.61187E+03 8.96160E+03 9.29167E+03-1.39076E+02 3.37201E+03
 -1      1935 3.69122E+04 7.87399E+02 5.96823E+03 4.89740E+03-6.14186E+02 2.96558E+03
 -1      1936 3.00381E+04 2.83749E+03 2.13620E+03 7.56076E+03-1.15740E+02 2.02014E+03
 -1      1937 1.73071E+04 4.02552E+03 4.67848E+03 4.00340E+03 1.89732E+02-1.13696E+03
 -1      1938 1.51914E+04 2.66766E+03 3.78492E+03 3.09792E+03 1.50103E+02-1.22165E+03
 -1      1939 7.46664E+03 1.02177E+03 1.96131E+03 2.65512E+02-4.34796E+01 1.43713E+03
 -1      1940 1.32393E+04 5.45218E+02 1.06289E+03 2.79426E+03-1.99573E+02 1.41940E+03
 -1      1941 1.47484E+04 1.67768E+03 2.48277E+03 2.91540E+03-2.50659E+02 1.65772E+03
 -1      1942 1.22020E+04 2.32627E+03 3.21903E+03 1.44244E+03-1.03138E+02 2.07444E+03
 -1      1943 1.68303E+04 6.07508E+02 1.05580E+03 3.95670E+03-5.51667E+02 1.61012E+03
 -1      1944 1.01465E+04 2.43299E+02 1.26610E+03 1.38149E+03-1.42034E+02 1.81702E+03
 -1      1945 9.75995E+03 1.63297E+03 2.23109E+03 9.84761E+02-5.43492E+01-8.16510E+02
 -1      1946 3.20280E+04 1.11447E+03 1.54552E+03 3.51823E+03 1.75559E+02 1.29955E+03
 -1      1947 3.01085E+04 1.40383E+03 9.94132E+02 5.31743E+03 5.18941E+01 1.06542E+03
 -1      1948 2.10692E+04 4.82799E+03 2.79065E+03 6.41391E+03 2.71108E+02-2.04836E+03
 -1      1949 1.72452E+04 1.86511E+03 4.62120E+02 3.18782E+03 6.50738E+01 1.40082E+03
 -1      1950 1.54901E+04 3.71162E+03 4.05787E+03 2.72273E+03-1.75076E+02 3.04444E+03
 -1      1951 2.10740E+04 5.40599E+03 5.23659E+03 6.24224E+03 9.34222E+01-1.15974E+03
 -1      1952 1.96929E+04 4.81425E+03 5.27321E+03 5.36972E+03 4.99562E+01-5.92867E+02
 -1      1953 2.96614E+04 5.48646E+03 4.50875E+02 7.80432E+03-5.04510E+02 2.30726E+03
 -1      1954 2.89402E+04 8.58472E+03 7.24543E+03 8.19397E+03-2.19689E+02 4.87858E+03
 -1      1955 2.74401E+04 2.42798E+03 1.17911E+03 7.17246E+03 2.25866E+01 6.20171E+02
 -1      1956 2.60558E+04 6.15301E+03 5.57378E+03 7.74664E+03 1.21046E+02-2.14816E+03
 -1      1957 1.67020E+04 2.88744E+03 3.48318E+03 3.79393E+03-1.54513E+02 1.76432E+03
 -1      1958 1.40927E+04 1.79192E+03 2.52779E+03 2.61638E+03-1.48500E+02 1.63313E+03
 -1      1959 1.24387E+04 5.87326E+02 1.14266E+03 2.37305E+03-1.98056E+02 1.54002E+03
 -1      1960 2.17901E+04-1.41342E+02 3.26424E+00 6.00417E+03-1.66610E+02 3.51273E+02
 -1      1961 2.50480E+04 6.83018E+03 5.51645E+03 7.64254E+03-1.37106E+02 3.25429E+03
 -1      1962 1.73443E+04 1.47508E+01 2.78656E+00 2.75755E+03 1.66823E+01-1.80250E+02
 -1      1963 1.49945E+04-1.03382E+02 9.42457E+01 2.98671E+03-2.95374E+01 1.55232E+01
 -1      1964 1.41810E+04 4.92356E+02 6.13831E+02 2.96402E+03-3.27230E+02 1.26477E+03
 -1      1965 2.92782E+04 1.21734E+03 2.04423E+03 4.04738E+03 3.63234E+01 8.10372E+02
 -1      1966 3.17559E+04 1.85669E+03 2.56623E+03 4.48233E+03 1.87289E+01 1.64107E+03
 -1      1967 1.12540E+04 2.88408E+02 6.59214E+02 1.66540E+03-2.97709E+02 1.84481E+03
 -1      1968 1.92961E+04 4.72934E+03 4.97112E+03 4.94346E+03-1.49606E+02 2.17322E+03
 -1      1969 2.95569E+04 2.83570E+03 8.17863E+02 7.66286E+03-5.72381E+01 9.72883E+02
 -1      1970 1.88816E+04 3.77752E+03 3.36901E+03 4.76809E+03 3.74084E+02-2.76270E+03
 -1      1971 3.36700E+04 9.20694E+02 2.74427E+03 3.46737E+03 3.89991E+01 2.85325E+03
 -1      1972 1.87348E+04 4.35648E+03 4.96630E+03 4.77935E+03-4.59836E+01-2.02282E+02
 -1      1973 1.77492E+04 6.76084E+02 5.56081E+02 4.14584E+03-5.09270E+02 7.59700E+02
 -1      1974 1.49529E+04 5.32462E+02 3.33610E+02 2.99134E+03-3.19037E+02 8.29104E+02
 -1      1975 1.24581E+04 1.73418E+02 1.88491E+02 1.66454E+03-2.64758E+02 1.23415E+03
 -1      1976 1.02482E+04 2.21188E+03 3.00186E+03 8.60689E+02 2.00227E+01 1.81681E+03
 -1      1977 7.62504E+03 1.26389E+03 2.00108E+03 3.10230E+02-2.61116E+01 1.46231E+03
 -1      1978 1.33325E+04-1.09727E+02-2.09512E+02 2.10117E+03 2.62723E+02-4.56240E+02
 -1      1979 1.43546E+04 6.41706E+01 2.45262E+02 2.41434E+03 3.30166E+02-1.10852E+03
 -1      1980 1.44203E+04 3.11086E+02 2.76928E+02 2.83866E+03-3.28719E+02 8.59597E+02
 -1      1981 2.22337E+04 3.18095E+02 9.40038E+01 8.15686E+03 6.76348E+01-4.10272E+01
 -1      1982 1.29607E+04-1.31478E+02-7.91737E+01 1.65749E+03 1.10873E+02-4.37177E+02
 -1      1983 1.57427E+04 1.19048E+02 2.72411E+02 3.65218E+03 3.21738E+02-7.41067E+02
 -1      1984 2.20228E+04 8.71905E+02 1.34727E+02 7.91659E+03 1.26381E+02-5.24219E+01
 -1      1985 1.48160E+04-1.24423E+02 2.96085E-01 2.50281E+03 1.33118E+02-4.05379E+02
 -1      1986 9.36233E+03 1.93530E+03 2.55019E+03 6.05783E+02 7.60309E+01-1.12842E+03
 -1      1987 7.41522E+03 1.21761E+03 1.96066E+03 1.75282E+02 5.14195E+01-1.41843E+03
 -1      1988 1.41518E+04 2.42935E+03 3.39995E+03 2.50998E+03 2.03180E+02-1.57481E+03
 -1      1989 1.28281E+04 9.91215E+02 1.84782E+03 2.54724E+03 1.62464E+02-1.45343E+03
 -1      1990 2.56093E+04 7.92982E+03 2.94945E+03 7.79402E+03-9.41632E+00 3.76464E+03
 -1      1991 2.49200E+04 6.92508E+03 2.95080E+03 7.58771E+03 6.19859E+01 3.34363E+03
 -1      1992 2.85275E+04 5.37703E+03 2.15522E+03 7.92917E+03-3.11040E+02 2.00463E+03
 -1      1993 2.66596E+04 7.29650E+03 5.93034E+03 8.29513E+03 8.25165E+01 4.04492E+03
 -1      1994 1.73182E+04 2.97153E+03 2.02487E+03 3.02188E+03 9.57509E+01-2.27627E+03
 -1      1995 4.13708E+04 8.31693E+02 9.08546E+02 4.77131E+03-7.00649E+02 2.86404E+03
 -1      1996 3.63397E+04 3.30583E+03 1.56446E+03 8.26597E+03 2.57769E+02 2.40594E+03
 -1      1997 3.98442E+04 9.95656E+02 3.44148E+03 4.65150E+03 4.35253E+02 4.61211E+03
 -1      1998 3.40087E+04 1.29612E+03 1.52671E+03 3.51527E+03 1.65528E+02 1.22476E+03
 -1      1999 3.82463E+04 4.32629E+03 8.34856E+03 5.93434E+03 2.18117E+01 6.78595E+03
 -1      2000 3.44183E+04 9.41997E+03 9.04216E+03 9.71636E+03 2.93513E+01 5.95606E+03
 -1      2001 4.32008E+04 7.30624E+03 1.13216E+04 9.73421E+03-1.64316E+02 4.50490E+03
 -1      2002 3.47154E+04 8.85567E+03 4.42991E+03 9.74744E+03-8.72989E+01 4.06057E+03
 -1      2003 3.55936E+04 9.50003E+03 6.09629E+03 8.23198E+03-2.24087E+02 6.25916E+03
 -1      2004 3.35315E+04 5.96600E+02 2.64433E+03 3.20127E+03 1.24723E+02 2.76015E+03
 -1      2005 4.18339E+04 9.13186E+02 9.84368E+02 4.90636E+03-7.29230E+02 2.97212E+03
 -1      2006 3.95330E+04 1.32309E+03 3.48963E+03 4.97365E+03 3.56251E+02 4.65550E+03
 -1      2007 3.56480E+04 3.50479E+03 1.32697E+03 8.26811E+03 1.42005E+02 2.20655E+03
 -1      2008 3.38413E+04 1.56074E+03 1.51668E+03 3.78606E+03 1.04973E+02 1.20846E+03
 -1      2009 3.48530E+04 8.95345E+03 4.25745E+03 9.64240E+03-1.79444E+02 3.99439E+03
 -1      2010 3.33050E+04 9.41760E+03 8.70363E+03 9.55387E+03-3.17949E+00 5.81704E+03
 -1      2011 3.48112E+04 9.45600E+03 5.92676E+03 8.20935E+03-2.01251E+02 6.12766E+03
 -1      2012 3.87906E+04 4.35967E+03 8.62424E+03 5.99356E+03-2.10217E+01 6.92634E+03
 -1      2013 4.19705E+04 7.44043E+03 1.10701E+04 9.84029E+03-1.79885E+02 4.39366E+03
 -1      2014 8.65735E+03 1.42460E+03 2.48051E+03 1.09016E+02-1.00061E+02 2.46807E+03
 -1      2015 1.09267E+04 4.77370E+02 1.01288E+03 1.40304E+03-3.28939E+02 2.06768E+03
 -1      2016 1.24942E+04 2.43423E+03 3.15757E+03 1.14725E+03-2.34992E+02 2.59299E+03
 -1      2017 9.71464E+03 1.30182E+03 2.14666E+03 5.15827E+02-1.08650E+02 2.02962E+03
 -1      2018 1.07948E+04 2.43505E+02 1.15629E+02 6.09527E+02-4.23312E+01 1.26208E+03
 -1      2019 1.46757E+04 9.43706E+02 6.49363E+02 1.59137E+03-5.48818E+02 1.44196E+03
 -1      2020 1.17721E+04 2.87230E+02 4.63273E+02 1.64491E+03-2.26825E+02 1.03577E+03
 -1      2021 1.23577E+04 2.14295E+03 1.39353E+03 2.06124E+02-2.53848E+02 1.80286E+03
 -1      2022 1.68688E+04 3.77642E+03 3.04823E+03 1.77460E+03-1.42802E+02 3.27573E+03
 -1      2023 3.05591E+04 8.40632E+03 7.83671E+03 8.56345E+03-6.59853E+01 4.22667E+03
 -1      2024 1.41192E+04 7.01384E+02 1.34196E+03 2.79733E+03 2.98125E+02-1.44694E+03
 -1      2025 1.36722E+04 3.02315E+03 3.61393E+03 1.94010E+03-1.58927E+02 2.40154E+03
 -1      2026 1.24206E+04 2.04128E+03 1.35472E+03 3.62645E+02 2.31320E+02-1.77821E+03
 -1      2027 1.48226E+04 7.23840E+02 3.68832E+02 1.85703E+03 6.30518E+02-1.30573E+03
 -1      2028 1.27997E+04 2.27783E+03 2.87577E+03 1.31730E+03 2.95913E+02-2.48232E+03
 -1      2029 1.69641E+04 3.39681E+03 2.54965E+03 1.86537E+03 2.56329E+02-3.09114E+03
 -1      2030 8.70528E+03 1.38015E+03 2.46381E+03 1.86140E+02 8.79369E+01-2.45348E+03
 -1      2031 1.11150E+04 4.49154E+02 8.03531E+02 1.55761E+03 3.60987E+02-1.94907E+03
 -1      2032 9.93208E+03 1.15464E+03 1.90597E+03 6.92541E+02 1.25600E+02-1.95309E+03
 -1      2033 1.08297E+04 1.47089E+02 6.43352E+01 7.29848E+02 2.80520E+01-1.22451E+03
 -1      2034 1.19739E+04 2.87436E+02 3.35260E+02 1.78025E+03 2.95856E+02-9.47177E+02
 -1      2035 3.01360E+04 5.34548E+03 8.56040E+02 7.93896E+03-3.99151E+02 2.38576E+03
 -1      2036 2.90390E+04 7.98356E+03 6.22280E+03 8.09070E+03-2.29478E+02 4.81985E+03
 -1      2037 1.16415E+04 1.64348E+02 5.31101E+02 1.88530E+03 2.81649E+02-1.68871E+03
 -1      2038 1.22667E+04 1.94489E+03 2.86884E+03 1.45131E+03 1.61484E+02-1.96223E+03
 -1      2039 1.02300E+04 2.56694E+02 1.05021E+03 1.58223E+03 1.00949E+02-1.69318E+03
 -1      2040 9.29290E+03 1.88373E+03 2.66540E+03 7.05542E+02-1.12826E+02 1.16202E+03
 -1      2041 1.28505E+04-1.70671E+02-7.11479E+01 1.64825E+03 1.01289E+02-3.79082E+02
 -1      2042 1.77455E+04 3.86458E+03 1.82305E+03 3.22499E+03 1.66165E+02-2.33573E+03
 -1      2043 2.67994E+04-1.78600E+02-2.79520E+02 1.76547E+03 1.07916E+02-3.66494E+02
 -1      2044 3.20761E+04 8.39272E+02 1.51759E+03 3.31010E+03 2.27710E+02 1.34929E+03
 -1      2045 1.29745E+04 1.27899E+02 1.56359E+02 1.72507E+03 2.72513E+02-1.15423E+03
 -1      2046 2.97107E+04 1.62689E+03 3.46980E+03 4.51637E+03 1.08603E+01 4.49496E+02
 -1      2047 2.24673E+04 2.63924E+02 2.39616E+02 7.30048E+03-1.77813E+02 2.65473E+02
 -1      2048 2.04828E+04 1.02711E+03 3.54666E+02 5.92233E+03 4.06867E+02-6.71772E+02
 -1      2049 2.15215E+04 1.92793E+03 1.04490E+03 6.28726E+03 2.86555E+02-9.61381E+02
 -1      2050 2.56404E+04 3.15450E+03 1.23799E+03 7.61975E+03 1.84819E+02-9.10141E+02
 -1      2051 2.23494E+04 3.22151E+03 2.13254E+03 6.40292E+03 2.21272E+02-1.48151E+03
 -1      2052 2.13882E+04 1.58911E+03 7.99714E+02 6.65607E+03-2.56215E+02 7.46823E+02
 -1      2053 1.97458E+04 4.45459E+03 4.02968E+03 5.35509E+03-2.31274E+02 1.84898E+03
 -1      2054 2.57778E+04 6.13315E+03 6.37538E+03 7.79073E+03-1.28204E+02-1.18727E+03
 -1      2055 2.47776E+04 5.62663E+03 5.27385E+03 7.71692E+03 6.67800E+01-7.52239E+02
 -1      2056 2.41400E+04 6.38673E+03 5.97583E+03 7.67550E+03 1.44713E+01 1.45887E+03
 -1      2057 2.31007E+04 3.01315E+03 1.76632E+03 7.25040E+03 2.90188E+02-1.21029E+03
 -1      2058 2.24371E+04 1.77700E+03 7.58907E+02 7.10418E+03 2.43309E+02-7.30248E+02
 -1      2059 1.75684E+04 2.23064E+03 2.93963E+03 4.32352E+03-2.90914E+02 9.61436E+02
 -1      2060 2.51595E+04-1.12759E+02 4.43587E+02 3.44783E+03 1.71445E+02-9.93409E+00
 -1      2061 2.52034E+04 3.93574E+03 3.70938E+03 7.78210E+03 1.15250E+02-4.38076E+02
 -1      2062 2.02157E+04 4.95565E+03 3.07975E+03 5.51056E+03 2.71484E+02-2.35764E+03
 -1      2063 2.94546E+04 1.42295E+03 1.38628E+03 4.27288E+03-1.11843E+01 6.30027E+02
 -1      2064 1.94447E+04 1.17844E+02 1.66097E+02 3.51989E+03 1.48384E+02-5.46228E+02
 -1      2065 1.86190E+04-9.91384E+01-7.81791E+01 2.74702E+03 3.86020E+01-3.02727E+02
 -1      2066 1.82571E+04 8.72609E+01-7.67162E+01 3.42320E+03 2.33105E+02-6.17297E+02
 -1      2067 2.36227E+04 6.47262E+03 6.19042E+03 7.41760E+03 8.79494E+01-1.70527E+03
 -1      2068 2.04261E+04 3.95568E+02 2.74079E+02 6.51716E+03-3.15863E+02 4.26569E+02
 -1      2069 1.75490E+04 2.32752E+03 3.28849E+03 4.29086E+03 2.01059E+02-4.46333E+02
 -1      2070 2.10382E+04 8.70841E+02 1.12707E+02 6.76067E+03 3.47376E+02-4.62401E+02
 -1      2071 1.86360E+04 3.99905E+01-8.83410E+01 3.19072E+03-1.95739E+02 5.22847E+02
 -1      2072 1.60020E+04-4.88283E+01 1.86663E+02 2.91425E+03 1.30920E+02-6.00227E+02
 -1      2073 1.08356E+04 8.35927E+02 1.65899E+03 1.32840E+03-6.22058E+00-3.49766E+02
 -1      2074 1.22825E+04 1.54321E+03 2.29773E+03 1.77105E+03-5.77189E+00 1.75085E+00
 -1      2075 1.61521E+04 9.26198E+01 2.18278E+02 3.90711E+03 3.04007E+02-7.37076E+02
 -1      2076 1.79766E+04 3.40864E+02 6.04730E+02 4.61231E+03 4.42360E+02-1.09044E+03
 -1      2077 1.08878E+04 8.22991E+02 1.69725E+03 1.34742E+03-1.98025E+01 3.33864E+02
 -1      2078 2.26047E+04 5.25520E+03 2.80391E+03 7.04312E+03-3.46457E+01-2.37716E+03
 -1      2079 1.68183E+04 2.68103E+03 2.88048E+03 3.53056E+03 3.29605E+02-2.41715E+03
 -1      2080 2.27173E+04 6.05961E+03 5.85696E+03 7.19181E+03-3.00916E+01-2.16356E+02
 -1      2081 2.16726E+04 2.62032E+02 3.98746E+02 6.90219E+03-2.73363E+02 4.00311E+02
 -1      2082 2.26136E+04 2.23862E+02 3.72700E+01 8.04387E+03-4.37674E+01 9.82269E+01
 -1      2083 2.11674E+04 2.23151E+03 2.73666E+03 6.03772E+03 2.46252E+02-8.00087E+02
 -1      2084 3.25875E+04 4.03580E+03 7.90411E+03 5.89001E+03-6.57627E+01-9.71977E+02
 -1      2085 2.96667E+04 3.40090E+03 6.74867E+03 5.65286E+03-4.42137E+00 5.70881E+00
 -1      2086 2.24391E+04 5.21640E+03 2.88596E+03 7.02532E+03-1.04726E+02 2.43402E+03
 -1      2087 1.58235E+04 1.59624E+02 2.93874E+02 3.32606E+03 3.16905E+02-9.66264E+02
 -1      2088 2.19582E+04-1.97728E+02-4.00191E+01 3.36541E+03 1.65559E+02-3.43970E+02
 -1      2089 3.27110E+04 3.99833E+03 7.95005E+03 5.95716E+03-5.18567E+00 9.82227E+02
 -1      2090 2.10088E+04 4.92283E+03 4.40912E+03 5.95105E+03-2.40303E+02 2.64626E+03
 -1      2091 2.07890E+04 2.92635E+03 1.44673E+03 5.17290E+03 3.00529E+02-1.46008E+03
 -1      2092 8.83026E+03 7.48329E+02 1.45217E+03 6.79442E+02 1.37006E+02-1.73855E+03
 -1      2093 1.92980E+04 4.11216E+03 1.49142E+03 4.26882E+03 5.10855E+01-2.18174E+03
 -1      2094 2.23747E+04 1.62580E+02 7.40062E+01 3.45594E+03 1.84189E+02-3.27175E+02
 -1      2095 2.26726E+04 1.44645E+02 9.75203E+01 6.79943E+03 1.84421E+02-1.24569E+02
 -1      2096 2.50070E+04 5.64512E+03 5.31830E+03 7.80405E+03-4.19099E+01 7.17977E+02
 -1      2097 1.40347E+04 5.53840E+02 1.20420E+03 2.89674E+03 2.15845E+02-6.50475E+02
 -1      2098 1.50690E+04 3.78010E+03 4.24243E+03 2.76682E+03-1.93238E+02 2.15686E+03
 -1      2099 2.31880E+04 6.61032E+03 6.10084E+03 7.39928E+03 4.64600E+01-1.84869E+03
 -1      2100 2.31393E+04 6.35801E+03 5.18982E+03 7.44387E+03-8.16910E+01 2.26338E+03
 -1      2101 2.07674E+04 2.59959E+03 3.03720E+03 5.98031E+03 1.54507E+02-6.15076E+02
 -1      2102 1.86208E+04 1.02400E+03 9.84215E+02 5.27873E+03 2.31051E+02-9.29999E+02
 -1      2103 2.50121E+04-1.54053E+02-2.77782E+02 2.63836E+03 1.60683E+02-2.58105E+02
 -1      2104 2.93725E+04 1.19027E+03 2.94627E+03 4.20007E+03 5.43533E+01 3.85220E+02
 -1      2105 1.93271E+04 1.51243E+03 8.10574E+02 4.87684E+03 3.17993E+02-1.08682E+03
 -1      2106 2.42079E+04 1.53336E+03 4.51917E+02 7.66772E+03-2.32519E+01 2.55337E+02
 -1      2107 3.18783E+04 2.12038E+03 2.99137E+03 4.67607E+03-9.70269E+01 1.77959E+03
 -1      2108 2.23080E+04 3.17945E+02 2.51714E+01 7.83644E+03 1.09761E+02-2.45408E+01
 -1      2109 9.30923E+03 1.79605E+03 2.57201E+03 6.91758E+02-1.17902E+02 1.14783E+03
 -1      2110 2.58350E+04 6.69192E+03 6.80971E+03 7.92946E+03 2.61491E+01-1.22000E+03
 -1      2111 3.54079E+04 3.45112E+03 9.36862E+03 6.20249E+03 1.17919E+02 2.41529E+03
 -1      2112 2.83101E+04 8.16872E+03 7.69187E+03 8.29324E+03 1.76140E+02 3.36773E+03
 -1      2113 2.44265E+04 7.24140E+03 3.62025E+03 7.51184E+03-4.16637E+02-3.51604E+03
 -1      2114 3.59463E+04 4.45684E+03 8.24061E+03 6.01723E+03 4.18457E+02-2.49700E+03
 -3
    1PSTEP                         3           1           1          
  100CL  101 1.000000000        2114                     0    1           1
 -4  TOSTRAIN    6    1
 -5  EXX         1    4    1    1
 -5  EYY         1    4    2    2
 -5  EZZ         1    4    3    3
 -5  EXY         1    4    1    2
 -5  EYZ         1    4    2    3
 -5  EZX         1    4    3    1
 -1         1 2.81470E-01-2.87691E-02-2.46318E-02 8.71946E-02-1.99857E-02-8.67179E-02
 -1         2 2.82396E-01-2.90388E-02-2.38509E-02 8.71604E-02 1.79570E-02 8.61120E-02
 -1         3 4.87008E-02-1.51911E-03-6.36960E-03-1.77897E-02 3.42187E-03-1.84915E-02
 -1         4 4.91914E-02-1.45593E-03-6.37671E-03-1.80127E-02-3.63277E-03 1.86310E-02
 -1         5 4.89183E-02-1.31919E-03-6.80474E-03-1.76354E-02-3.78088E-03 1.87851E-02
 -1         6 4.96537E-02-1.37322E-03-6.88922E-03-1.77667E-02 4.02258E-03-1.88907E-02
 -1         7 2.80191E-01-2.88057E-02-2.40896E-02 8.64551E-02 1.72218E-02 8.56306E-02
 -1         8 2.82143E-01-2.95468E-02-2.42765E-02 8.75766E-02-1.99724E-02-8.67179E-02
 -1         9 2.16246E-01-3.13779E-02-1.99009E-03 8.78397E-02-1.06628E-03 3.12242E-02
 -1        10 2.27529E-01-7.52288E-03 1.88760E-03 1.13816E-01-4.26703E-03 1.07297E-02
 -1        11 2.06425E-01-6.03551E-07-3.70843E-03 1.04671E-01 1.23632E-04 3.51207E-05
 -1        12 2.27709E-01 6.39723E-04-2.90105E-03 1.19791E-01 1.54418E-03-1.71102E-02
 -1        13 2.22845E-01-8.09773E-03-6.54524E-04 1.09079E-01 3.67549E-04-3.63361E-02
 -1        14 2.68906E-01 3.73710E-07 9.75412E-08 1.24308E-01-5.47483E-09 5.13489E-02
 -1        15 2.51377E-01 3.33638E-07 4.76061E-08 1.27760E-01-9.99736E-09 2.05680E-02
 -1        16 2.11878E-01 2.97954E-07 5.80969E-08 1.09848E-01 2.28397E-08 1.09363E-02
 -1        17 2.17132E-01 3.08880E-07 4.64305E-08 1.12161E-01-2.67032E-08-9.65386E-03
 -1        18 2.40178E-01 3.15483E-07 5.05746E-08 1.23819E-01-1.60862E-08-2.74631E-02
 -1        19 2.50818E-01 3.38476E-07 8.85950E-08 1.22239E-01 8.16369E-09-5.31081E-02
 -1        20 1.51412E-01 4.16962E-03-1.23350E-02 4.77309E-02 2.26100E-04-7.35545E-02
 -1        21 1.33013E-01-1.58531E-03 6.10296E-04 4.13952E-02 1.57836E-03-7.32402E-02
 -1        22 1.05697E-01 2.19703E-06-3.49379E-03 3.11724E-02 5.17860E-04-5.17078E-02
 -1        23 1.04776E-01-1.65197E-03 1.67075E-04 1.89326E-02-2.18699E-04-5.39052E-02
 -1        24 8.17045E-02-2.44230E-03-1.11726E-02 5.20596E-03-3.07133E-04-3.13484E-02
 -1        25 2.12853E-01 8.64999E-08 2.71949E-07 5.39982E-02 6.46210E-09-1.03969E-01
 -1        26 1.53426E-01 2.36602E-08 2.16804E-07 4.68447E-02-1.28106E-08-8.09224E-02
 -1        27 1.24371E-01 4.61408E-08 1.88804E-07 3.56288E-02-1.42146E-08-6.48178E-02
 -1        28 1.05194E-01 5.20720E-08 1.62259E-07 2.58666E-02 7.01923E-09-5.39686E-02
 -1        29 1.00835E-01 3.28577E-08 1.54175E-07 1.25451E-02-4.35681E-09-5.10030E-02
 -1        30 7.63472E-02 4.67524E-08 1.10167E-07-6.74571E-03-7.26916E-09-3.54211E-02
 -1        31 1.52592E-02-8.37432E-04 4.40249E-04-9.51685E-03 5.44989E-04 1.09385E-02
 -1        32 9.59492E-03 1.77655E-04 5.94290E-05-7.04090E-03 4.24083E-04 5.96388E-03
 -1        33 8.33379E-03-4.77050E-04 1.36963E-04-4.23790E-03-5.45013E-06-9.60321E-06
 -1        34 9.46458E-03 1.37763E-04 2.96136E-05-7.39487E-03-3.90667E-04-5.80649E-03
 -1        35 1.53519E-02-1.05454E-03 4.43350E-04-9.14562E-03-4.78357E-04-1.10556E-02
 -1        36 2.67623E-02 5.49930E-08 1.52938E-08-1.51503E-02 5.70572E-09 1.25862E-02
 -1        37 1.25434E-02 4.12475E-08 1.56845E-08-8.50472E-03 5.71384E-10 8.47294E-03
 -1        38 8.56526E-03 4.47175E-08 3.15347E-08-5.35686E-03-2.86414E-09 3.01484E-03
 -1        39 8.40099E-03 4.42377E-08 3.11697E-08-5.64948E-03 4.88916E-09-2.86068E-03
 -1        40 1.24568E-02 3.81121E-08 1.61195E-08-8.64300E-03-1.22762E-09-8.39534E-03
 -1        41 2.63433E-02 5.48639E-08 1.56743E-08-1.47276E-02-5.09065E-09-1.26156E-02
 -1        42 1.50133E-01 2.44370E-05-2.10721E-02 4.77013E-02-1.09996E-03 6.51601E-02
 -1        43 1.34410E-01-1.46981E-03 6.55516E-04 4.09784E-02-1.38868E-03 7.31934E-02
 -1        44 1.06388E-01 1.13895E-05-3.42786E-03 3.13649E-02-4.15956E-04 5.17003E-02
 -1        45 1.05814E-01 9.19220E-05-2.92803E-03 2.18315E-02 1.90360E-03 5.38773E-02
 -1        46 8.16907E-02-1.88300E-03-1.06482E-02 5.19917E-03 4.12212E-04 3.22934E-02
 -1        47 2.17217E-01 6.98327E-08 3.18467E-07 5.76387E-02-2.96161E-09 1.02328E-01
 -1        48 1.55307E-01 3.72272E-09 2.27275E-07 4.36487E-02 5.74255E-09 8.14117E-02
 -1        49 1.24425E-01 4.50732E-08 1.88081E-07 3.55641E-02 1.45824E-08 6.46863E-02
 -1        50 1.03810E-01 5.33453E-08 1.54801E-07 2.54813E-02-7.11891E-09 5.41152E-02
 -1        51 1.06068E-01 4.07110E-08 1.48150E-07 1.32519E-02 9.35362E-09 5.47685E-02
 -1        52 7.74982E-02 4.43276E-08 1.11886E-07-6.84940E-03 8.13735E-09 3.61700E-02
 -1        53 1.27524E-02-4.64845E-04 6.82083E-04-7.99136E-03-3.47160E-04-1.10617E-02
 -1        54 9.69126E-03-5.09606E-04 1.87859E-04-6.67084E-03-2.66422E-04-5.58825E-03
 -1        55 8.63866E-03-3.34610E-04 6.34555E-05-3.60849E-03 9.29534E-06-2.16007E-05
 -1        56 9.75370E-03 1.71037E-04-3.25848E-05-6.89612E-03 4.78906E-04 5.93090E-03
 -1        57 1.25162E-02 1.27733E-05 5.31518E-04-8.06199E-03 2.67099E-04 1.09532E-02
 -1        58 2.61368E-02 5.45600E-08 1.38752E-08-1.37746E-02-2.16888E-09-1.24579E-02
 -1        59 1.22624E-02 2.84121E-08 1.95459E-08-8.05242E-03-2.03230E-10-8.72703E-03
 -1        60 8.93479E-03 4.92067E-08 2.95859E-08-5.09624E-03 4.40043E-09-2.93602E-03
 -1        61 8.65676E-03 4.57336E-08 3.12474E-08-4.89662E-03-3.90622E-09 2.94594E-03
 -1        62 1.17153E-02 3.97755E-08 1.62460E-08-8.04105E-03 3.94145E-10 8.81418E-03
 -1        63 2.57288E-02 5.45207E-08 1.43344E-08-1.35461E-02 2.56816E-09 1.25046E-02
 -1        64 8.26287E-02 9.14054E-04-6.49803E-03 3.68518E-03 1.35025E-04 3.64444E-02
 -1        65 1.05259E-01-1.76876E-03 2.73257E-04 1.86246E-02 6.12550E-04 5.49665E-02
 -1        66 1.05904E-01-1.80819E-04-3.33266E-03 3.13154E-02-4.74847E-04 5.10766E-02
 -1        67 1.33452E-01 1.73893E-03-5.42332E-03 3.70618E-02-2.64830E-03 6.88183E-02
 -1        68 1.49049E-01 6.15254E-04-2.12065E-02 4.67621E-02-1.61176E-03 6.53905E-02
 -1        69 7.44387E-02 5.40690E-08 9.49858E-08-5.33883E-03 1.22819E-08 3.70238E-02
 -1        70 1.01203E-01 4.58806E-08 1.39433E-07 9.41062E-03 6.26477E-10 5.17151E-02
 -1        71 1.05384E-01 5.26082E-08 1.61133E-07 2.58459E-02-9.14090E-09 5.37631E-02
 -1        72 1.21859E-01 5.00662E-08 1.86081E-07 3.64433E-02 1.47801E-08 6.33842E-02
 -1        73 1.61640E-01 1.88433E-08 2.17502E-07 4.11221E-02-2.70772E-09 8.42671E-02
 -1        74 2.15573E-01 7.26397E-08 3.12393E-07 5.70886E-02-5.69490E-09 1.01969E-01
 -1        75 2.27325E-01-1.86974E-05-4.65570E-03 1.18910E-01 6.69322E-04-3.27435E-02
 -1        76 2.29668E-01-8.40502E-03 1.18294E-03 1.15079E-01 4.71600E-03-8.63571E-03
 -1        77 2.01954E-01-1.24994E-02 2.52172E-03 9.33143E-02 6.24849E-05-1.39987E-04
 -1        78 2.30551E-01 5.98488E-04-3.40264E-03 1.21588E-01-1.38348E-03 1.51408E-02
 -1        79 2.18541E-01-3.18778E-02-2.15871E-03 8.69535E-02-1.06094E-03 3.10682E-02
 -1        80 2.54797E-01 3.46334E-07 7.88888E-08 1.24977E-01 1.01725E-08-5.44038E-02
 -1        81 2.46086E-01 3.30351E-07 3.99607E-08 1.29633E-01 1.30055E-08-1.91859E-02
 -1        82 2.19938E-01 2.90692E-07 9.05292E-08 1.12088E-01-1.40800E-08-5.99395E-03
 -1        83 2.25976E-01 3.02000E-07 8.01468E-08 1.14838E-01 1.83710E-08 4.21357E-03
 -1        84 2.45196E-01 3.44032E-07 2.20856E-08 1.25123E-01 1.46793E-09 2.25720E-02
 -1        85 2.65954E-01 3.67210E-07 1.03854E-07 1.22759E-01-6.09493E-09 5.09503E-02
 -1        86 8.29784E-02 9.79025E-04-6.66618E-03 3.51918E-03 1.41102E-05-3.70078E-02
 -1        87 1.06162E-01 9.88377E-05-3.99929E-03 2.18274E-02-2.43171E-03-5.25576E-02
 -1        88 1.06427E-01-2.43614E-04-3.36208E-03 3.15600E-02 4.37097E-04-5.10558E-02
 -1        89 1.32973E-01 1.41404E-03-5.27098E-03 3.72498E-02 2.95517E-03-6.91641E-02
 -1        90 1.54469E-01-2.08947E-03-3.79709E-05 4.71208E-02 1.37774E-03-8.38029E-02
 -1        91 7.48257E-02 5.28100E-08 9.55576E-08-5.26629E-03-1.21659E-08-3.71863E-02
 -1        92 1.07462E-01 5.52470E-08 1.42053E-07 1.07388E-02-4.76421E-09-5.47461E-02
 -1        93 1.03707E-01 5.90323E-08 1.63990E-07 2.54309E-02 4.14116E-09-5.25150E-02
 -1        94 1.21656E-01 4.91318E-08 1.86401E-07 3.64441E-02-1.47047E-08-6.33185E-02
 -1        95 1.53596E-01 1.59341E-08 2.12496E-07 4.11893E-02 3.03164E-09-8.34983E-02
 -1        96 2.08279E-01 5.51963E-08 2.92438E-07 5.96115E-02-1.27685E-09-1.01624E-01
 -1        97 1.40087E-01-4.66338E-02-4.65452E-02-4.14326E-03 3.72192E-04-8.85690E-03
 -1        98 1.07448E-01-3.21620E-02-3.20658E-02 1.13581E-03-5.68601E-04-1.80006E-03
 -1        99 8.62013E-02-2.58957E-02-2.58101E-02 2.17251E-03-1.13148E-04-1.84743E-03
 -1       100 6.12853E-02-1.83173E-02-1.83924E-02 2.08081E-03-5.92781E-04-1.00008E-03
 -1       101 3.77062E-02-1.24100E-02-1.20003E-02 4.31839E-03-5.81782E-04 4.08286E-04
 -1       102 2.14859E-01-6.28764E-02-5.98348E-02 1.81611E-02 4.99782E-03 1.60275E-02
 -1       103 1.21998E-01-3.64338E-02-3.62000E-02 3.07637E-03 2.57830E-03-3.25920E-04
 -1       104 9.69912E-02-2.93311E-02-2.93127E-02 1.61736E-03-9.84027E-05-1.95303E-03
 -1       105 7.40502E-02-2.20405E-02-2.20919E-02 2.20084E-03-2.75962E-05-1.47042E-03
 -1       106 4.99160E-02-1.46334E-02-1.51074E-02 1.71132E-03 2.33162E-04-1.51513E-03
 -1       107 4.21797E-02-1.01148E-02-1.26594E-02-2.93328E-03 1.39468E-03-4.43278E-03
 -1       108 1.34817E-01-4.38863E-02-4.42396E-02-5.03024E-03 1.20081E-03 8.27015E-03
 -1       109 1.07705E-01-3.24654E-02-3.23013E-02 1.31224E-03 6.31455E-04 2.16149E-03
 -1       110 8.59246E-02-2.56837E-02-2.57640E-02 2.22858E-03 3.64272E-04 1.82879E-03
 -1       111 6.19179E-02-1.84578E-02-1.85676E-02 1.94571E-03 2.90359E-04 1.17536E-03
 -1       112 3.78804E-02-1.21735E-02-1.21132E-02 4.46807E-03 5.46753E-04-1.37327E-04
 -1       113 2.14825E-01-5.87883E-02-5.77283E-02 1.86025E-02-8.80147E-03-1.76948E-02
 -1       114 1.21842E-01-3.66439E-02-3.60614E-02 1.94347E-03-1.19032E-04 1.08277E-03
 -1       115 9.72539E-02-2.92074E-02-2.93786E-02 1.76284E-03-7.47777E-05 2.14155E-03
 -1       116 7.38335E-02-2.19153E-02-2.20183E-02 2.04616E-03 6.52671E-04 1.68151E-03
 -1       117 5.02057E-02-1.46570E-02-1.49934E-02 2.03736E-03-5.93533E-04 1.48561E-03
 -1       118 4.20340E-02-9.95890E-03-1.27862E-02-2.99715E-03-1.18993E-03 4.59551E-03
 -1       119 3.95916E-02-1.33060E-02-1.30778E-02 4.90181E-03 3.55796E-04-4.73061E-04
 -1       120 6.16084E-02-1.82549E-02-1.84445E-02 2.04200E-03 2.97070E-04 1.28138E-03
 -1       121 8.62421E-02-2.60540E-02-2.60546E-02 3.14117E-03-4.11807E-05 2.14181E-03
 -1       122 1.07729E-01-3.22770E-02-3.23335E-02 1.20142E-03 4.26678E-04 1.92019E-03
 -1       123 1.35073E-01-4.45420E-02-4.39899E-02-4.53618E-03 1.61459E-03 8.94414E-03
 -1       124 4.27109E-02-1.10798E-02-1.32505E-02-2.30655E-03-1.09599E-03 4.16839E-03
 -1       125 4.94907E-02-1.43306E-02-1.48111E-02 1.73660E-03-9.43859E-04 1.55504E-03
 -1       126 7.42844E-02-2.20342E-02-2.21912E-02 2.67790E-03 2.89628E-04 1.78411E-03
 -1       127 9.67578E-02-2.93754E-02-2.91945E-02 2.02197E-03 2.14686E-05 2.19588E-03
 -1       128 1.22308E-01-3.67139E-02-3.62218E-02 2.66509E-03-1.33911E-03 1.18583E-03
 -1       129 2.14442E-01-6.05822E-02-5.55845E-02 1.96971E-02-7.83816E-03-1.93776E-02
 -1       130 3.98745E-02-1.31292E-02-1.31066E-02 4.62408E-03-1.28754E-04 1.82714E-04
 -1       131 6.12753E-02-1.82365E-02-1.84465E-02 2.29589E-03-5.98161E-04-1.26616E-03
 -1       132 8.55479E-02-2.55551E-02-2.55997E-02 2.46524E-03-7.43273E-04-1.97689E-03
 -1       133 1.07627E-01-3.22399E-02-3.20936E-02 1.18288E-03-5.17913E-04-1.79135E-03
 -1       134 1.40075E-01-4.62905E-02-4.64129E-02-4.50840E-03 3.38332E-04-8.80682E-03
 -1       135 4.26331E-02-1.10504E-02-1.32265E-02-2.39758E-03 1.02523E-03-4.23135E-03
 -1       136 4.96594E-02-1.44955E-02-1.51037E-02 1.71991E-03 2.62090E-04-1.61034E-03
 -1       137 7.38188E-02-2.18407E-02-2.20270E-02 2.24616E-03-5.73513E-04-1.83058E-03
 -1       138 9.69452E-02-2.92219E-02-2.91123E-02 1.92416E-03-7.15462E-04-1.94340E-03
 -1       139 1.22103E-01-3.64116E-02-3.60826E-02 3.09369E-03 2.77570E-03-2.96766E-04
 -1       140 2.14835E-01-6.22473E-02-6.00027E-02 1.80676E-02 3.90029E-03 1.63617E-02
 -1       141 7.00369E-02 2.21501E-07-1.41618E-04 3.52698E-02 3.59576E-07-2.28084E-04
 -1       142 5.58055E-02-4.12310E-04-9.71670E-07 1.86208E-02 2.02738E-04 1.23235E-02
 -1       143 8.54494E-02 9.63974E-05-1.14668E-03 4.89113E-02 7.65742E-04 1.77438E-02
 -1       144 8.64224E-02-4.35287E-04-1.15210E-03 4.79636E-02 1.41055E-04-1.69152E-02
 -1       145 5.43609E-02 6.69902E-08 4.65513E-08 1.81091E-02-6.13772E-09-1.14669E-02
 -1       146 8.45999E-02 2.61463E-04 7.71291E-04 5.75194E-02 6.83765E-05 5.04902E-05
 -1       147 7.01143E-02 1.51721E-04-1.28795E-03 3.51288E-02-1.12670E-03 2.22690E-02
 -1       148 5.41276E-02-2.27702E-03 7.09632E-07 1.36337E-02 1.00094E-05 9.53292E-05
 -1       149 7.00081E-02 1.98605E-04-1.29711E-03 3.51772E-02 8.10494E-04-2.03946E-02
 -1       150 4.64592E-02-4.81055E-04 1.54864E-04 9.24278E-03-1.62873E-04-1.51526E-02
 -1       151 4.58346E-02 5.63900E-08 3.63646E-08 8.14699E-03 5.38703E-09 1.54312E-02
 -1       152 9.05257E-02 2.27703E-03-1.22735E-03 5.78269E-02-1.33800E-03-3.21405E-02
 -1       153 9.80780E-02 8.11533E-08 1.00461E-07 5.32614E-02 2.23665E-09 2.96628E-02
 -1       154 6.26890E-02-1.59461E-03-1.78700E-04 2.45311E-02-2.00958E-04 4.04905E-03
 -1       155 8.11488E-02-1.37588E-04-8.24397E-04 4.53500E-02 1.08805E-05-5.18207E-03
 -1       156 7.50608E-02-5.35968E-04-9.78023E-04 3.97939E-02-2.13374E-04 1.06361E-02
 -1       157 6.64574E-02-3.31736E-04 3.24279E-06 3.05058E-02-2.87402E-05-1.11972E-02
 -1       158 6.40610E-02-4.70176E-04-1.23713E-03 2.65727E-02 6.20141E-04-2.22583E-02
 -1       159 4.64816E-02-3.76645E-03 2.26902E-05 7.40213E-03 1.86053E-04-5.50574E-03
 -1       160 9.61022E-02 3.50167E-05-7.83138E-04 6.00134E-02-3.66174E-04-1.05796E-02
 -1       161 6.51129E-02-1.50413E-03-1.30841E-03 2.66659E-02-2.58780E-04 2.24802E-02
 -1       162 9.80609E-02 1.66206E-04-7.11282E-04 5.88006E-02-4.58386E-04 9.48315E-03
 -1       163 7.81977E-02 7.33430E-04-3.10416E-03 4.34850E-02 1.11747E-03 3.01727E-02
 -1       164 4.66842E-02-3.82759E-03-1.23710E-04 7.87859E-03-2.94630E-04 5.73843E-03
 -1       165 8.06158E-02 1.07348E-04-4.32958E-03 4.38778E-02-8.29653E-04-2.93979E-02
 -1       166 8.20646E-02-2.88833E-04-9.94671E-04 4.58853E-02-1.50548E-04 4.62632E-03
 -1       167 7.43715E-02 5.92730E-08 7.34072E-08 3.94570E-02-1.95153E-09-1.20172E-02
 -1       168 6.10226E-02-1.85432E-03-3.22855E-04 2.26090E-02 1.63519E-04-4.14921E-03
 -1       169 6.74301E-02-5.97714E-04-6.11949E-04 3.16470E-02-7.90435E-05 1.03093E-02
 -1       170 9.23415E-02 1.69360E-03-3.74207E-03 4.61159E-02 1.55014E-03-4.06639E-02
 -1       171 3.52727E-02-2.11292E-03 4.36333E-04 1.76613E-03 3.15051E-05 1.01860E-02
 -1       172 1.15597E-01-1.11824E-03-8.83325E-04 6.86044E-02 1.48131E-03 2.22450E-02
 -1       173 8.69983E-02 1.62323E-03-8.90870E-04 4.74611E-02-8.86280E-04 3.90835E-02
 -1       174 6.11684E-02-1.33283E-03-1.26506E-03 1.64946E-02-1.09065E-03 2.62978E-02
 -1       175 1.14687E-01-1.68252E-03 7.91050E-04 6.72652E-02 3.40048E-03-1.73669E-02
 -1       176 5.96122E-02-4.81622E-04-1.15068E-03 1.70827E-02-4.73479E-04-2.35065E-02
 -1       177 3.52617E-02-2.04487E-03 3.90604E-04 7.07100E-04 3.97813E-04-9.77868E-03
 -1       178 1.22590E-01-1.00292E-03 1.35243E-03 6.46947E-02 7.82885E-04-5.70841E-02
 -1       179 3.75007E-02-1.63279E-03 1.27442E-03-1.98439E-03-1.61960E-04 1.83921E-02
 -1       180 3.80025E-02-1.76922E-03 1.22012E-03-1.29217E-03 1.26605E-04-1.84144E-02
 -1       181 1.15297E-01 3.84302E-03 2.90478E-04 6.62794E-02-7.71838E-04 4.93831E-02
 -1       182 1.70296E-01 2.84578E-07 1.03211E-07 9.24554E-02 2.99179E-08-4.53847E-02
 -1       183 1.88494E-01-7.71847E-03-7.00794E-03 7.76209E-02-7.36346E-03-7.26753E-02
 -1       184 1.38152E-01 2.23352E-03-6.66382E-03 5.36884E-02 2.48915E-03-6.71181E-02
 -1       185 1.59150E-01-8.52921E-03-1.94376E-05 7.77731E-02-4.21406E-03 3.76666E-02
 -1       186 1.85036E-01-6.77243E-03-6.12751E-03 7.75018E-02 6.45009E-03 6.83808E-02
 -1       187 1.31488E-01 1.26432E-03-7.86247E-03 5.43792E-02-3.23429E-03 5.89832E-02
 -1       188 5.59970E-02-8.53134E-04-2.57512E-03 2.81006E-03-1.78743E-03-2.45686E-02
 -1       189 4.16919E-02-1.03164E-03-1.69781E-03-9.67576E-03 1.36479E-03-1.87797E-02
 -1       190 2.86947E-02-1.60686E-03 4.36113E-04-5.92102E-03-6.67790E-04-1.40786E-02
 -1       191 2.83896E-02-1.45570E-03 3.46714E-04-6.61375E-03 5.41710E-04 1.40278E-02
 -1       192 4.17951E-02-1.06579E-03-1.67133E-03-1.01148E-02-1.36847E-03 1.88171E-02
 -1       193 5.61603E-02-7.07229E-04-2.73808E-03 2.30754E-03 1.70838E-03 2.47477E-02
 -1       194 1.74271E-01-3.21656E-03 3.55401E-04 9.46412E-02-1.99524E-03 1.60943E-02
 -1       195 1.56453E-01-6.76482E-03-1.01615E-03 8.18512E-02 4.08217E-03 2.85345E-02
 -1       196 1.06383E-01 9.06453E-08 8.24691E-08 5.91314E-02-1.26384E-09 2.46004E-02
 -1       197 1.27516E-01 1.02821E-07 1.01347E-07 6.60243E-02 5.52248E-09 3.24593E-02
 -1       198 1.13835E-01 9.65264E-08 1.15612E-07 5.86462E-02 7.44825E-09 3.82480E-02
 -1       199 1.48265E-01 2.66213E-07 5.82825E-08 8.22858E-02 5.56429E-09 7.81875E-03
 -1       200 1.52924E-01 3.02071E-07 5.10297E-08 8.44637E-02 1.18651E-08 1.36099E-02
 -1       201 1.09710E-01-1.97308E-03-4.19844E-04 6.28517E-02 9.20344E-04 1.49845E-02
 -1       202 1.54320E-01 1.81401E-04-1.77079E-03 8.74902E-02 3.52972E-04-1.50988E-02
 -1       203 1.48362E-01 2.71174E-07 5.25392E-08 8.33147E-02-8.87208E-09-7.63436E-03
 -1       204 9.00541E-02 8.87543E-04 3.61756E-05 5.83289E-02 2.34107E-04-2.72716E-03
 -1       205 1.36795E-01-1.05915E-06-2.13555E-03 7.78200E-02 1.78807E-04 5.84664E-05
 -1       206 8.98712E-02 1.56107E-03 7.82356E-05 5.79423E-02-4.25683E-04 2.87275E-03
 -1       207 1.71812E-01-5.99039E-03 1.94045E-03 8.78615E-02-2.29731E-03-2.86219E-02
 -1       208 1.66440E-01 2.85214E-07 5.08528E-08 9.44443E-02 3.93953E-09-2.08135E-02
 -1       209 9.98451E-02-7.76441E-05-1.54782E-04 6.28325E-02-1.66441E-04-1.48603E-02
 -1       210 1.07805E-01-2.51851E-03-2.39448E-04 6.17486E-02 1.17493E-03-2.56100E-02
 -1       211 1.42622E-01 8.74967E-05-1.47993E-03 7.96104E-02 1.76912E-03-3.33639E-02
 -1       212 9.67537E-02 2.12874E-03-1.01244E-03 5.73427E-02 5.57967E-04-3.90683E-02
 -1       213 1.11874E-01 2.60110E-08 1.94279E-07 4.53145E-02 1.58711E-10-5.97352E-02
 -1       214 1.23391E-01 1.29717E-03-3.84722E-03 4.96965E-02-1.26587E-03-5.90163E-02
 -1       215 9.74690E-02 8.19546E-04-3.52605E-03 5.14846E-02 1.12098E-03-3.51605E-02
 -1       216 1.18428E-01 7.89798E-08 2.07143E-07 5.16180E-02-1.94415E-09-5.22260E-02
 -1       217 9.46435E-02 1.11568E-03-3.62561E-03 3.70026E-02 1.47321E-03-4.24914E-02
 -1       218 1.02267E-01-1.03468E-03 9.12266E-05 4.27134E-02 1.64574E-04-5.17594E-02
 -1       219 8.18409E-02-2.02235E-04-1.94704E-03 4.47448E-02-7.51715E-04-3.44514E-02
 -1       220 8.34200E-02-9.63713E-04 2.79771E-05 2.26781E-02 3.65651E-05-3.85293E-02
 -1       221 8.47243E-02 5.16105E-08 1.47146E-07 2.89157E-02-1.70257E-09-3.94176E-02
 -1       222 6.62294E-02-9.71587E-06-1.00858E-03 3.20518E-02 2.66782E-04-2.13203E-02
 -1       223 8.49583E-02-6.70756E-04 1.84153E-07 3.42583E-02-5.83172E-04-3.63652E-02
 -1       224 7.65917E-02 1.41102E-04-2.90155E-03 3.92105E-02-5.56582E-04-2.38041E-02
 -1       225 7.05014E-02-3.22030E-04-3.13328E-03 9.84129E-03 1.72265E-03-3.01893E-02
 -1       226 8.16348E-02 3.90326E-08 1.39805E-07 1.65800E-02-1.07396E-08-3.98841E-02
 -1       227 6.01453E-02 5.92744E-05-1.00199E-03 2.16454E-02 2.27924E-04-2.27092E-02
 -1       228 5.39713E-02-7.13009E-04-3.52946E-04 1.32921E-02-5.56272E-04-1.87525E-02
 -1       229 5.30768E-02 6.61409E-08 5.32133E-08 7.05313E-03-7.06455E-09-2.12997E-02
 -1       230 4.29797E-02 6.67873E-08 4.77295E-08 3.97422E-03-4.62277E-09-1.64792E-02
 -1       231 2.26187E-02 3.91799E-08 1.68771E-08-4.55008E-03 1.36670E-09 7.66164E-03
 -1       232 2.47987E-02-5.74806E-04 4.43503E-06-4.30169E-03-2.84179E-04 1.01254E-02
 -1       233 3.90281E-02 5.60338E-08 2.91701E-08 5.00735E-03 4.92763E-09 1.22590E-02
 -1       234 3.12295E-02 5.89128E-08 3.11178E-08-3.54348E-05 3.26205E-09 1.32427E-02
 -1       235 4.24841E-02 5.93131E-08 3.82568E-08 3.27253E-03 3.91126E-09 1.67542E-02
 -1       236 2.85994E-02-9.48267E-04 5.97379E-05 1.77670E-04 5.15501E-04 2.33828E-03
 -1       237 3.02716E-02 8.17961E-05-2.54688E-04-2.11703E-03 1.65205E-04 5.90649E-03
 -1       238 4.13635E-02-2.59865E-03-4.42463E-05 4.38700E-03-7.82713E-04 7.98746E-03
 -1       239 3.05880E-02 6.75427E-05-2.50981E-04-2.60595E-03-1.67896E-04-5.53420E-03
 -1       240 2.84862E-02-1.31255E-03 3.93694E-04 2.29481E-04-5.38010E-04-2.26198E-03
 -1       241 4.97093E-02-3.01315E-03 1.08819E-05 1.11829E-02 7.18085E-04-3.28474E-03
 -1       242 3.45312E-02 7.10056E-08 4.72531E-08 2.80107E-03-3.33467E-10 3.63367E-05
 -1       243 5.01772E-02-2.82270E-03-6.89992E-05 1.09434E-02-7.74780E-04 3.35174E-03
 -1       244 2.47944E-02-8.37185E-04 4.57225E-05-4.29363E-03 3.94177E-04-1.00470E-02
 -1       245 2.26602E-02 3.70234E-08 1.84516E-08-5.06205E-03-9.57031E-10-7.57090E-03
 -1       246 4.17616E-02-2.38513E-03-6.57216E-05 3.57645E-03 7.68711E-04-7.76573E-03
 -1       247 4.04008E-02-7.38816E-04 3.26679E-04 5.69494E-03-1.48393E-04-1.24411E-02
 -1       248 3.16292E-02 6.64401E-08 3.93483E-08 6.36441E-04-4.03758E-09-1.30826E-02
 -1       249 1.09682E-01 1.65183E-08 1.98593E-07 4.53172E-02-6.80677E-09 5.75884E-02
 -1       250 1.14147E-01-7.10626E-04-3.85395E-03 4.91735E-02 2.27674E-03 5.45473E-02
 -1       251 9.16023E-02 5.62882E-08 1.03303E-07 4.90012E-02 5.25545E-10 3.49248E-02
 -1       252 1.05163E-01 7.37076E-08 1.15897E-07 5.27601E-02 8.13950E-09 4.40022E-02
 -1       253 9.42528E-02 1.21180E-03-3.55531E-03 3.67187E-02-1.49314E-03 4.22074E-02
 -1       254 1.01443E-01-8.48400E-04-3.20799E-05 4.26423E-02 1.66163E-04 5.11695E-02
 -1       255 7.85128E-02 1.90404E-05-3.52411E-04 4.35732E-02 8.39796E-05 3.42157E-02
 -1       256 8.01203E-02 4.83529E-08 1.56834E-07 2.31614E-02-1.83478E-09 3.80625E-02
 -1       257 8.29890E-02 5.13720E-08 1.42145E-07 2.88399E-02 7.05680E-10 3.92056E-02
 -1       258 6.65216E-02-3.26399E-05-1.52932E-04 3.24735E-02-7.09597E-05 2.32840E-02
 -1       259 8.41061E-02-6.43550E-04 5.17471E-06 3.42831E-02 6.18041E-04 3.65208E-02
 -1       260 7.67537E-02 2.25473E-04-3.25247E-03 3.89171E-02 4.80627E-04 2.53376E-02
 -1       261 6.79284E-02-3.73060E-04-3.10027E-03 1.04728E-02-1.82737E-03 3.09825E-02
 -1       262 8.41651E-02-4.23655E-04-1.13014E-03 1.94689E-02 9.08248E-04 4.20829E-02
 -1       263 6.42963E-02-4.35482E-04-1.79547E-03 2.18765E-02-8.87395E-04 2.44199E-02
 -1       264 5.38910E-02 5.38230E-08 4.16670E-08 1.20609E-02 7.32220E-09 1.95012E-02
 -1       265 5.27003E-02 5.80173E-08 4.21231E-08 6.75099E-03 5.67394E-09 2.13322E-02
 -1       266 6.25127E-02-2.13441E-03 1.50116E-05 2.35439E-02 1.46447E-04-1.22499E-05
 -1       267 6.65270E-02 7.58254E-08 6.74523E-08 3.06933E-02 1.19444E-09 1.96962E-03
 -1       268 6.57784E-02-8.21536E-05-2.39904E-04 2.99967E-02 1.48431E-04-2.24252E-03
 -1       269 6.47672E-02-5.81424E-04-1.56749E-04 2.82815E-02 3.43334E-04 7.10809E-03
 -1       270 6.89960E-02 7.44578E-08 7.00499E-08 3.35462E-02 3.28436E-09 4.76381E-03
 -1       271 8.13496E-02-3.27884E-04 9.13498E-06 4.53972E-02 1.46402E-04-1.21119E-05
 -1       272 7.51708E-02 2.79829E-05-7.90128E-04 4.02778E-02-1.36112E-04-2.57820E-03
 -1       273 7.53747E-02 6.85450E-08 7.23118E-08 4.01899E-02 3.39299E-09 2.30036E-03
 -1       274 7.71339E-02 6.00848E-08 7.00946E-08 4.24632E-02-1.73859E-09-8.96133E-03
 -1       275 7.20858E-02 6.09094E-08 6.75996E-08 3.73679E-02-1.65740E-09-6.22089E-03
 -1       276 7.91111E-02-5.88080E-04-9.33252E-04 4.28694E-02-7.40958E-04 7.53927E-03
 -1       277 7.26295E-02 7.00372E-08 7.14119E-08 3.74672E-02 4.40437E-09 4.55752E-03
 -1       278 7.10769E-02-1.55543E-05-9.46830E-04 3.58570E-02-1.21921E-04 1.02847E-02
 -1       279 7.02678E-02 6.03528E-08 7.48066E-08 3.51222E-02-2.78747E-09-1.16225E-02
 -1       280 6.79821E-02 6.11345E-08 6.74101E-08 3.30330E-02-2.22232E-09-5.82611E-03
 -1       281 6.35162E-02-7.79095E-04 2.02413E-05 2.68966E-02-3.70745E-04-7.75082E-03
 -1       282 5.05688E-02 5.22398E-08 3.58530E-08 1.30811E-02 7.22510E-09 1.38382E-02
 -1       283 4.58126E-02 5.11242E-05 4.43219E-04 1.12189E-02 5.69124E-04 1.16202E-02
 -1       284 5.89605E-02-5.16717E-04 9.93826E-06 1.75238E-02 5.15408E-05 1.77409E-02
 -1       285 5.39946E-02-4.06429E-04-2.13647E-04 1.70579E-02-6.49830E-04 4.78626E-03
 -1       286 5.02466E-02-7.81816E-04 4.57698E-05 1.45007E-02 4.46781E-04 9.19719E-03
 -1       287 5.85465E-02 6.32946E-08 4.96194E-08 2.21366E-02 3.55457E-09 8.13678E-03
 -1       288 6.14922E-02 6.46121E-08 5.09549E-08 2.53166E-02 4.19765E-09 1.12646E-02
 -1       289 6.65598E-02-8.80880E-04-4.61948E-04 2.90691E-02-7.32216E-04 1.57032E-02
 -1       290 6.13739E-02-9.31409E-04-4.07814E-04 2.23304E-02 6.25071E-04 1.62107E-02
 -1       291 8.63480E-02 6.69315E-08 8.41395E-08 4.93945E-02-6.95203E-09 2.26916E-02
 -1       292 9.97299E-02-8.82018E-06 1.30273E-03 5.52900E-02 1.72795E-05 2.02029E-02
 -1       293 8.64111E-02 2.05302E-03 2.89141E-05 4.88415E-02-3.62043E-04 2.72260E-02
 -1       294 7.81961E-02 6.12630E-08 9.46092E-08 4.09685E-02 4.53151E-09 1.88645E-02
 -1       295 8.26865E-02-3.52496E-05-2.46979E-04 4.49788E-02-1.62567E-04 2.28062E-02
 -1       296 8.13363E-02-4.80079E-04-7.98768E-04 4.40669E-02 7.01331E-04 1.45252E-02
 -1       297 8.57390E-02 1.48217E-04-6.16873E-04 4.83058E-02 9.44335E-04 1.02953E-02
 -1       298 9.20986E-02 8.01437E-08 7.48976E-08 5.15279E-02-4.41526E-10 6.65161E-03
 -1       299 9.49425E-02 5.43332E-06-1.39314E-03 5.32658E-02-5.41534E-04 1.33166E-02
 -1       300 9.59689E-02 9.46081E-08 1.15400E-07 5.19767E-02-4.41281E-09-2.31391E-02
 -1       301 8.97528E-02 8.12968E-08 1.17680E-07 4.86004E-02-7.06855E-09-2.64367E-02
 -1       302 1.01487E-01 9.89914E-08 1.07340E-07 5.53861E-02-6.19052E-09-1.96065E-02
 -1       303 9.23638E-02 8.45372E-08 7.50360E-08 5.13858E-02-6.74296E-10-6.84856E-03
 -1       304 9.62110E-02-7.75801E-05-1.62231E-03 5.30287E-02 7.14995E-04-1.33188E-02
 -1       305 8.35914E-02-4.24588E-04-1.63061E-04 4.65688E-02-3.32247E-04-1.04327E-02
 -1       306 7.88396E-02 5.82733E-08 7.29817E-08 4.34107E-02-2.85757E-09-1.40522E-02
 -1       307 7.72537E-02 5.73815E-08 7.53206E-08 4.09509E-02-1.32852E-09-1.74691E-02
 -1       308 8.30282E-02-2.57847E-04-9.26911E-04 4.51354E-02 6.71746E-04-2.12207E-02
 -1       309 5.05923E-02 7.10908E-08 4.77960E-08 1.42325E-02-7.22075E-09-1.34620E-02
 -1       310 5.60305E-02 6.71618E-08 5.02796E-08 1.79276E-02-7.31354E-09-1.66166E-02
 -1       311 4.58253E-02 7.12947E-08 4.30917E-08 1.08454E-02-4.51920E-09-1.06291E-02
 -1       312 6.58326E-02-8.23150E-04-9.94734E-05 2.88414E-02 2.86271E-04-1.58723E-02
 -1       313 6.00085E-02 6.34735E-08 5.00661E-08 2.18849E-02-6.40310E-09-1.56069E-02
 -1       314 6.07328E-02 6.36924E-08 4.75321E-08 2.38857E-02-6.82247E-09-1.13226E-02
 -1       315 5.70465E-02 6.43345E-08 4.45965E-08 1.97885E-02-6.37967E-09-7.84566E-03
 -1       316 5.21579E-02-4.25175E-05-1.80626E-04 1.52670E-02 9.27866E-05-4.94272E-03
 -1       317 4.86758E-02 6.78838E-08 4.24972E-08 1.36498E-02-4.30532E-09-8.56179E-03
 -1       318 8.89698E-02 8.38781E-08 7.45977E-08 4.93552E-02 5.19887E-10-2.50081E-03
 -1       319 8.88073E-02 8.14068E-08 7.53677E-08 4.94886E-02 2.60506E-10 2.25120E-03
 -1       320 7.33193E-02 6.41848E-08 9.31849E-08 3.75914E-02 5.81622E-09 1.57155E-02
 -1       321 6.99772E-02 6.53293E-08 9.11095E-08 3.38685E-02 7.10971E-09 1.56234E-02
 -1       322 5.77533E-02 9.89430E-08 5.85004E-08 1.80537E-02 2.59305E-09 1.72652E-03
 -1       323 5.66428E-02 9.94643E-08 5.82058E-08 1.71107E-02-2.57343E-09-1.66529E-03
 -1       324 6.94174E-02 6.00887E-08 7.74818E-08 3.30390E-02-6.40835E-09-1.47921E-02
 -1       325 7.35211E-02 5.86364E-08 7.96405E-08 3.73739E-02-1.33961E-09-1.51869E-02
 -1       326 7.06959E-02-3.92303E-04-3.10950E-04 3.54370E-02-7.59956E-05 2.66354E-04
 -1       327 8.61073E-02-3.50296E-04-1.23022E-03 4.85252E-02-3.38013E-05-1.69392E-02
 -1       328 5.71163E-02-1.58489E-03-4.70073E-04 1.87056E-02-3.86492E-06-1.17754E-02
 -1       329 5.73195E-02-1.21273E-03-6.01501E-04 1.96111E-02 1.85214E-04 1.22570E-02
 -1       330 8.66484E-02-4.54448E-04-1.83946E-03 4.78855E-02 3.97276E-04 1.69368E-02
 -1       331 5.32579E-02-3.46889E-03-4.67524E-05 1.45966E-02 1.98505E-04-2.16225E-04
 -1       332 7.19524E-02-7.24319E-04-2.40885E-03 3.49468E-02 1.11089E-03-2.13778E-02
 -1       333 8.63967E-02 1.16435E-03 2.60001E-06 5.53262E-02 6.16016E-05 2.98520E-04
 -1       334 6.97564E-02 1.71964E-04-1.39130E-03 3.51169E-02-1.09387E-03 2.16709E-02
 -1       335 9.46059E-02 9.75601E-04 7.15035E-05 5.30515E-02 5.23735E-04 2.85192E-02
 -1       336 8.92157E-02 2.58986E-03-5.55907E-04 5.94188E-02-3.23284E-04-3.31965E-02
 -1       337 5.10246E-02-2.77564E-03-5.12995E-04 9.13658E-03-3.39402E-04 1.61597E-02
 -1       338 4.90970E-02-2.26634E-03-3.76366E-04 8.56470E-03 5.40882E-04-1.66721E-02
 -1       339 7.99723E-02-5.46704E-04-1.19822E-03 4.47768E-02 1.19672E-04-4.82134E-03
 -1       340 5.86750E-02 6.98821E-08 5.25924E-08 2.30704E-02 2.79697E-09 3.90402E-03
 -1       341 6.68062E-02-7.15436E-04-5.59281E-04 3.05912E-02 2.39424E-05-9.11510E-03
 -1       342 7.47050E-02-2.45989E-05-6.18022E-04 3.97161E-02 1.36598E-04 1.25491E-02
 -1       343 7.98260E-02 8.49466E-04-3.38585E-03 4.27283E-02 6.08091E-04 2.97294E-02
 -1       344 9.70994E-02-1.14173E-03 8.64367E-05 6.13885E-02 2.28341E-03 1.14354E-02
 -1       345 4.73328E-02-4.87405E-03-1.13465E-04 8.83183E-03-3.72644E-04 5.95519E-03
 -1       346 8.17667E-02 2.93607E-04-4.99044E-03 4.38523E-02-4.99268E-04-2.80101E-02
 -1       347 4.65545E-02-5.01968E-03-1.89523E-04 8.77234E-03-1.83140E-05-5.92558E-03
 -1       348 6.20705E-02 5.09744E-05-2.16048E-04 2.67022E-02 5.21211E-06-2.26939E-02
 -1       349 1.00162E-01-1.70386E-03-1.92367E-04 6.05404E-02-1.28126E-03-1.02896E-02
 -1       350 6.41670E-02-9.57028E-04-9.09458E-04 2.64134E-02-5.67480E-04 2.36204E-02
 -1       351 5.96638E-02-1.16897E-03-4.70301E-06 2.29739E-02-2.18054E-04-3.73860E-03
 -1       352 6.71584E-02-9.91388E-04-1.15647E-03 3.04873E-02-2.13394E-04 1.12049E-02
 -1       353 8.09084E-02-1.30874E-04-6.33071E-05 4.56795E-02 1.38727E-04 5.25837E-03
 -1       354 7.35506E-02 6.25704E-08 7.28835E-08 3.88311E-02-2.26583E-09-1.09363E-02
 -1       355 6.11341E-02-3.02027E-04-1.81286E-03 1.77403E-02 1.39474E-03 2.56332E-02
 -1       356 1.19314E-01-2.27153E-03-9.07709E-04 7.01463E-02-2.72689E-03-2.24670E-02
 -1       357 3.74845E-02-3.68852E-03-1.13913E-04 2.13492E-03 2.79687E-04-9.69421E-03
 -1       358 6.45257E-02-2.11695E-03-3.79565E-03 1.74206E-02 7.44580E-04-2.63933E-02
 -1       359 9.16154E-02 1.14208E-04-2.43921E-03 4.84440E-02-1.83105E-03-4.09095E-02
 -1       360 3.66593E-02-1.86773E-03 9.33424E-05 2.03767E-03 2.26551E-05 9.59330E-03
 -1       361 9.04406E-02 1.62427E-03-3.39518E-03 4.80298E-02 1.32598E-03 4.18911E-02
 -1       362 1.10481E-01-3.30623E-04 1.24433E-03 6.39610E-02-1.33168E-03 1.95846E-02
 -1       363 4.13882E-02-1.94263E-03-7.76595E-05-2.62924E-03-1.19917E-03 2.12720E-02
 -1       364 1.19219E-01 2.02731E-03 1.44217E-03 6.52381E-02 1.73482E-03-5.23437E-02
 -1       365 1.13645E-01 3.96466E-03 5.38372E-04 6.69144E-02-7.41034E-04 4.88634E-02
 -1       366 4.10141E-02-1.79419E-03-4.30295E-05-3.09259E-03 1.14492E-03-2.12847E-02
 -1       367 2.69079E-02 4.81204E-08 1.83353E-08-6.66156E-03 4.08539E-09 1.36214E-02
 -1       368 4.16423E-02-7.56432E-04-2.61004E-03-9.62354E-03-1.68330E-03 1.97424E-02
 -1       369 6.11036E-02-4.51706E-04-2.28317E-03 2.55388E-03 1.42559E-03 2.95797E-02
 -1       370 4.18009E-02-7.80414E-04-2.65346E-03-9.91019E-03 1.71746E-03-1.97341E-02
 -1       371 2.66655E-02 4.78044E-08 1.79269E-08-6.85559E-03-3.44361E-09-1.35252E-02
 -1       372 6.10069E-02-2.53389E-04-2.43276E-03 2.08913E-03-1.32774E-03-2.96080E-02
 -1       373 1.29570E-01 1.40310E-03-7.96468E-03 5.37788E-02-3.66044E-03 5.80010E-02
 -1       374 1.81927E-01-6.53629E-03-5.96867E-03 7.71842E-02 6.25276E-03 6.75262E-02
 -1       375 1.57855E-01-8.48593E-03 2.18763E-04 7.76732E-02-4.48978E-03 3.69349E-02
 -1       376 1.74027E-01 2.88880E-07 1.00377E-07 9.49639E-02 2.75925E-08-4.74482E-02
 -1       377 1.93547E-01-7.72229E-03-6.17027E-03 7.95529E-02-6.94692E-03-7.17859E-02
 -1       378 1.40394E-01 7.63420E-08 2.40972E-07 5.88486E-02 1.33648E-08-7.18431E-02
 -1       379 2.55810E-02-1.20266E-03 2.04483E-05-3.71443E-03 6.31411E-04-1.07804E-02
 -1       380 2.44143E-02-9.02585E-04 1.95966E-04-3.75864E-03-5.23489E-04-6.97774E-03
 -1       381 3.41311E-02-1.00405E-05-1.59123E-04-1.73053E-03-3.61399E-04-1.32394E-02
 -1       382 4.40775E-02-2.76139E-03 5.06246E-04 5.69227E-03-5.95782E-04-1.21127E-02
 -1       383 4.46623E-02-1.36538E-03-5.95378E-04 2.94556E-03 9.79866E-04-1.79597E-02
 -1       384 2.97379E-02 5.04840E-08 2.97269E-08-1.69601E-03 7.88638E-10-5.77618E-03
 -1       385 2.84357E-02-9.76754E-04-6.83431E-06 7.79860E-04-5.37422E-04-2.55418E-03
 -1       386 4.15816E-02-2.23970E-03-1.68898E-04 4.71443E-03 7.57053E-04-8.00425E-03
 -1       387 2.85851E-02-1.07468E-03 1.26081E-04 7.82058E-04 5.30230E-04 2.39540E-03
 -1       388 3.01488E-02 1.02474E-04-2.41969E-04-1.84414E-03 2.67124E-04 5.80664E-03
 -1       389 3.39061E-02 7.38645E-08 4.82314E-08 3.12680E-03 4.02018E-10 1.70728E-05
 -1       390 5.02671E-02-3.87519E-03 6.45350E-06 1.21485E-02-8.33468E-04 3.12939E-03
 -1       391 4.97804E-02-3.94017E-03-2.09996E-04 1.20100E-02 1.08954E-03-3.24116E-03
 -1       392 2.30658E-02 3.78906E-08 1.63729E-08-3.96614E-03 1.59998E-09 7.58434E-03
 -1       393 2.44353E-02 3.82728E-08 1.73230E-08-4.27524E-03 9.37873E-11 1.02735E-02
 -1       394 4.17204E-02-2.28694E-03-7.55975E-05 4.85567E-03-6.78721E-04 7.83350E-03
 -1       395 4.46944E-02-2.74683E-03 8.64415E-04 5.75122E-03 5.92021E-04 1.18685E-02
 -1       396 3.52413E-02 2.10206E-06-5.75630E-04-1.54264E-03 3.47007E-05 1.30976E-02
 -1       397 4.56121E-02-1.49980E-03-5.34755E-04 3.54087E-03-1.01735E-03 1.81772E-02
 -1       398 7.38850E-02 8.25207E-04-3.04278E-03 8.44847E-03-1.10189E-03 3.29708E-02
 -1       399 8.14341E-02 4.40034E-08 1.29794E-07 1.60718E-02 7.34304E-09 4.15628E-02
 -1       400 5.90403E-02 7.47821E-08 1.07680E-07 7.29721E-03 6.07604E-09 2.60011E-02
 -1       401 5.48435E-02-2.97920E-04-1.29907E-03 1.30783E-02 7.48048E-04 2.05852E-02
 -1       402 8.16916E-02-1.21606E-03 1.04665E-04 2.22450E-02 1.86498E-04 3.89041E-02
 -1       403 8.33616E-02 5.22677E-08 1.46048E-07 2.88473E-02-7.34550E-10 3.91842E-02
 -1       404 6.04736E-02-9.43667E-05-1.08509E-03 2.11514E-02-4.03642E-04 2.41776E-02
 -1       405 9.39380E-02 1.14689E-03-3.08411E-03 3.68280E-02-1.22948E-03 4.17226E-02
 -1       406 1.00958E-01 4.18549E-08 1.89704E-07 4.16587E-02 7.10187E-09 4.99401E-02
 -1       407 8.35946E-02-6.99201E-04 1.84759E-07 3.43400E-02 6.16620E-04 3.60222E-02
 -1       408 7.65325E-02 3.70753E-04-3.33280E-03 3.85974E-02 4.86386E-04 2.50594E-02
 -1       409 6.67005E-02-1.60046E-04-7.29460E-04 3.24066E-02-3.41971E-04 2.30574E-02
 -1       410 1.15629E-01 1.14261E-03-2.80987E-03 4.18382E-02-1.27444E-03 5.86287E-02
 -1       411 1.13562E-01-4.33761E-04-4.27571E-03 4.77763E-02 2.34792E-03 5.62742E-02
 -1       412 8.64735E-02-3.84356E-05-2.96784E-03 4.40104E-02 8.65924E-04 3.52450E-02
 -1       413 9.08677E-02 1.84150E-03-1.14198E-03 4.96503E-02 5.17025E-04 3.40544E-02
 -1       414 1.01888E-01 8.48495E-08 1.20229E-07 5.13688E-02 8.21124E-09 4.33851E-02
 -1       415 1.09618E-01 1.07210E-07 1.17262E-07 5.74011E-02 7.10710E-09 3.67793E-02
 -1       416 1.79298E-01-3.71039E-03 3.08279E-04 9.65594E-02 2.16859E-03-1.38291E-02
 -1       417 1.69857E-01 2.86851E-07 4.71089E-08 9.73192E-02-5.07817E-09-2.18590E-02
 -1       418 9.83661E-02 8.18585E-04 6.13895E-04 6.27721E-02-7.14282E-04-2.78889E-02
 -1       419 1.45259E-01-5.22096E-06-2.47690E-03 8.32180E-02 2.04516E-04-3.16328E-02
 -1       420 8.49388E-02 2.35510E-03 4.83919E-04 5.72440E-02 1.42077E-03-3.85585E-02
 -1       421 1.50348E-01-4.85114E-03 1.51187E-03 7.88408E-02 2.10910E-03-2.16473E-03
 -1       422 1.52720E-01 2.95791E-07 6.94061E-08 8.64519E-02-4.33041E-09-1.16977E-02
 -1       423 1.11213E-01-2.97377E-03-7.89640E-04 6.41591E-02-1.54107E-03-1.43804E-02
 -1       424 1.54273E-01-2.19702E-04-1.97364E-03 8.87383E-02 7.95226E-04 1.31983E-02
 -1       425 1.50555E-01-5.62624E-03 1.73935E-03 7.95651E-02-2.28247E-03 2.16649E-03
 -1       426 9.50494E-02-1.25027E-03 5.77982E-05 5.79595E-02 2.43049E-04 3.75324E-03
 -1       427 1.30344E-01 2.30167E-07 8.26736E-08 7.16315E-02 3.36064E-10-3.36816E-05
 -1       428 9.50624E-02-1.21003E-03 1.75524E-04 5.79213E-02-1.27160E-04-3.15859E-03
 -1       429 1.60548E-01-5.91937E-03-8.15045E-04 8.13249E-02 3.35816E-03 2.86292E-02
 -1       430 1.68177E-01 3.01518E-07 3.96129E-08 9.33552E-02-1.77148E-08 2.06310E-02
 -1       431 9.64584E-02 1.19315E-03-7.90817E-05 6.08745E-02-2.90857E-04 1.36825E-02
 -1       432 1.26265E-01 1.16397E-07 1.03557E-07 6.62801E-02 6.43259E-09 3.16068E-02
 -1       433 1.05613E-01-3.31923E-04 3.56745E-04 5.87927E-02 5.04996E-05 2.38662E-02
 -1       434 8.63523E-02-1.69446E-04-2.31044E-03 1.96540E-02-1.49655E-03-4.21574E-02
 -1       435 7.52451E-02 3.63317E-06-3.96595E-03 8.71717E-03 1.97408E-03-3.38449E-02
 -1       436 5.55816E-02-1.24295E-04-1.50238E-03 1.24094E-02-6.55605E-04-2.03042E-02
 -1       437 5.91040E-02 7.18232E-08 1.06151E-07 6.67926E-03-5.66396E-09-2.61551E-02
 -1       438 8.22207E-02 5.77445E-08 1.49313E-07 2.86799E-02-4.78362E-09-3.81376E-02
 -1       439 7.91918E-02 5.41337E-08 1.65034E-07 2.29231E-02 2.20069E-09-3.66250E-02
 -1       440 6.34516E-02 1.71817E-04-1.96007E-03 2.26128E-02 4.08841E-04-2.45465E-02
 -1       441 1.01561E-01 3.89922E-08 1.89967E-07 4.17565E-02-5.55725E-09-4.98593E-02
 -1       442 9.44820E-02 1.11672E-03-3.10953E-03 3.69577E-02 1.19046E-03-4.16531E-02
 -1       443 7.82511E-02 2.14174E-04-4.57787E-03 3.95480E-02-7.31433E-04-2.38326E-02
 -1       444 8.45286E-02-1.02862E-03-3.56554E-06 3.42200E-02-4.67813E-04-3.64750E-02
 -1       445 6.48539E-02-1.73596E-04-4.80219E-04 3.15341E-02 3.01116E-04-2.22151E-02
 -1       446 1.20008E-01 2.16255E-08 1.92043E-07 4.42324E-02-5.19869E-09-6.36911E-02
 -1       447 1.14364E-01 1.08010E-03-2.67570E-03 4.16708E-02 1.36340E-03-5.76778E-02
 -1       448 8.65068E-02-3.10828E-04-2.75497E-03 4.45840E-02-1.02757E-03-3.45171E-02
 -1       449 1.19164E-01-1.01738E-03-1.72162E-05 5.17414E-02 6.30842E-04-5.68832E-02
 -1       450 9.17032E-02 9.47065E-04-1.64492E-03 5.23522E-02-1.09328E-04-3.60575E-02
 -1       451 7.53306E-02-1.09974E-04-7.49259E-04 3.98534E-02-2.95534E-04-2.18402E-03
 -1       452 8.01016E-02-2.19201E-04-9.38826E-05 4.52722E-02 2.85225E-04 5.93529E-04
 -1       453 7.60237E-02 6.93284E-08 7.89166E-08 4.07166E-02 3.13703E-10 3.04643E-03
 -1       454 7.21664E-02 6.35141E-08 6.83415E-08 3.71596E-02-1.56127E-09-5.58952E-03
 -1       455 7.63884E-02 6.34667E-08 7.02480E-08 4.13673E-02-1.80484E-09-8.11017E-03
 -1       456 6.45509E-02 6.90089E-08 5.34553E-08 2.90008E-02 2.02776E-09 2.11041E-03
 -1       457 5.91179E-02 7.05159E-08 5.22503E-08 2.30578E-02 2.13639E-09 1.70101E-04
 -1       458 6.49938E-02 6.97387E-08 5.32462E-08 2.89882E-02 1.06370E-09-1.62350E-03
 -1       459 6.88444E-02-6.99410E-04-1.96939E-04 3.30499E-02-3.80015E-04 5.35237E-03
 -1       460 6.23846E-02 6.84456E-08 5.37409E-08 2.65761E-02 2.75473E-09 6.75342E-03
 -1       461 6.28362E-02 2.51976E-05-3.45132E-04 2.66173E-02-1.22344E-04-6.18395E-03
 -1       462 6.88578E-02-4.92669E-04-2.35676E-04 3.30309E-02 3.73408E-04-4.28790E-03
 -1       463 7.04070E-02 6.26982E-08 7.20899E-08 3.51323E-02-2.16795E-09-1.00601E-02
 -1       464 7.30274E-02 6.91177E-08 7.91369E-08 3.79345E-02 1.50082E-09 6.21319E-03
 -1       465 7.08274E-02 4.14199E-06-7.48895E-04 3.55145E-02 1.95537E-04 1.21885E-02
 -1       466 7.81900E-02 7.00769E-08 8.15236E-08 4.27042E-02 8.42390E-10 8.65430E-03
 -1       467 1.00502E-01 8.89787E-08 1.01911E-07 5.54930E-02-1.92859E-09-1.94713E-02
 -1       468 9.54911E-02 8.64823E-08 1.09584E-07 5.19794E-02-2.45865E-09-2.38655E-02
 -1       469 8.80784E-02 7.49958E-08 1.08874E-07 4.80966E-02-4.91113E-09-2.65460E-02
 -1       470 9.54153E-02 6.84963E-05-1.36633E-03 5.36356E-02 5.32529E-04-1.31210E-02
 -1       471 9.17026E-02 9.27254E-08 8.43181E-08 5.11217E-02-4.73612E-10-6.38437E-03
 -1       472 8.37140E-02-9.12952E-04-4.05998E-04 4.65421E-02-6.54206E-04-1.07395E-02
 -1       473 7.87856E-02 6.22088E-08 7.39792E-08 4.31001E-02-2.80274E-09-1.33347E-02
 -1       474 7.66162E-02 6.15464E-08 7.63125E-08 4.07236E-02-2.82471E-09-1.67764E-02
 -1       475 8.35587E-02 7.09897E-05-1.56690E-03 4.58970E-02 9.73915E-04-2.11717E-02
 -1       476 5.28046E-02 8.79533E-08 6.52371E-08 1.31018E-02-9.06128E-09-1.39290E-02
 -1       477 4.67868E-02 8.83820E-08 5.80617E-08 1.06886E-02-6.44566E-09-1.09925E-02
 -1       478 5.98963E-02-2.10973E-03-3.02366E-05 1.80912E-02 3.80459E-04-1.76327E-02
 -1       479 6.10124E-02 7.70108E-08 7.83357E-08 2.31415E-02-9.21092E-09-1.68975E-02
 -1       480 6.58257E-02 7.39456E-08 7.76603E-08 2.83426E-02-8.06173E-09-1.56341E-02
 -1       481 6.15420E-02 7.52104E-08 7.20384E-08 2.50621E-02-7.97080E-09-1.08254E-02
 -1       482 5.83559E-02-1.12007E-03-1.02772E-04 2.11990E-02 3.39877E-04-7.69393E-03
 -1       483 5.30723E-02 1.00898E-07 7.22829E-08 1.67813E-02-5.60361E-09-5.06610E-03
 -1       484 5.09821E-02-1.14372E-03-1.52008E-04 1.40576E-02-7.90627E-04-9.02721E-03
 -1       485 5.26329E-02 8.63143E-08 6.40008E-08 1.42422E-02 7.67065E-09 1.42460E-02
 -1       486 5.86417E-02 8.19607E-08 6.77602E-08 1.74503E-02 7.16391E-09 1.77145E-02
 -1       487 4.69980E-02 8.72743E-08 5.81042E-08 1.15310E-02 4.59225E-09 1.12438E-02
 -1       488 5.20080E-02-1.02908E-03-1.39946E-04 1.57041E-02 6.82764E-04 9.47347E-03
 -1       489 5.30308E-02 7.06849E-08 5.17861E-08 1.77937E-02 3.49978E-09 4.96757E-03
 -1       490 5.72231E-02 6.93169E-08 5.27191E-08 2.17644E-02 3.45711E-09 7.53619E-03
 -1       491 6.26093E-02-2.63491E-04-1.26742E-03 2.53717E-02-6.34575E-04 1.14858E-02
 -1       492 6.61386E-02 6.52922E-08 8.37738E-08 2.92435E-02 8.35909E-09 1.72124E-02
 -1       493 6.26930E-02-1.66611E-03 4.46672E-04 2.30259E-02 4.09330E-04 1.72300E-02
 -1       494 8.86700E-02 6.75344E-08 1.05879E-07 4.73682E-02-1.02326E-10 2.67590E-02
 -1       495 9.30490E-02 8.06483E-08 1.03017E-07 5.09035E-02-5.55269E-09 2.27633E-02
 -1       496 1.00428E-01 8.69017E-08 9.44641E-08 5.52437E-02-1.72045E-09 1.87981E-02
 -1       497 8.28671E-02 7.19497E-05-2.46884E-05 4.46283E-02 1.64307E-05 2.28999E-02
 -1       498 7.84300E-02 5.85807E-08 9.61940E-08 4.07508E-02 5.85813E-09 2.00691E-02
 -1       499 8.00962E-02-1.23073E-04-1.47909E-03 4.36778E-02 4.27105E-04 1.47941E-02
 -1       500 8.42874E-02-5.85624E-04-1.46403E-04 4.71428E-02 3.11967E-04 9.99002E-03
 -1       501 9.32162E-02 9.95130E-08 8.27229E-08 5.17769E-02 2.24935E-09 7.03233E-03
 -1       502 9.61883E-02 4.08503E-04-1.30512E-03 5.34080E-02-2.84882E-04 1.31926E-02
 -1       503 5.51682E-02 7.13207E-08 5.16029E-08 1.95612E-02 2.90603E-09 1.73990E-03
 -1       504 5.57405E-02-4.92654E-04-5.85100E-05 1.90279E-02-3.99021E-04-1.99164E-03
 -1       505 6.95583E-02-4.91750E-04-2.42657E-04 3.29924E-02-3.57104E-04-1.39575E-02
 -1       506 7.26593E-02 6.19885E-08 7.63298E-08 3.70643E-02-2.43349E-09-1.44895E-02
 -1       507 8.57791E-02 9.22002E-08 8.55657E-08 4.86393E-02-1.34937E-09-2.08914E-03
 -1       508 8.69891E-02 9.59854E-08 8.33802E-08 4.92197E-02 6.49028E-10 2.66681E-03
 -1       509 7.30458E-02 6.11843E-08 9.35051E-08 3.74011E-02 5.55210E-09 1.63657E-02
 -1       510 6.89312E-02 6.35126E-08 8.76045E-08 3.30818E-02 6.78313E-09 1.57915E-02
 -1       511 1.00003E-01-2.86047E-02-3.27889E-02 9.77406E-04 1.94282E-05 8.72737E-05
 -1       512 5.91459E-02-1.72963E-02-2.02137E-02 3.74434E-03 1.11243E-03-6.61667E-03
 -1       513 1.36459E-01-4.50276E-02-3.43958E-02 2.17112E-03 4.03001E-04 3.33965E-03
 -1       514 1.33465E-01-4.24879E-02-3.54394E-02-1.85706E-03-3.40669E-05-3.06253E-03
 -1       515 5.68212E-02-1.66664E-02-1.96462E-02 3.78711E-03-9.06152E-04 7.17948E-03
 -1       516 1.53796E-01-6.36029E-02-2.68505E-02 2.81272E-03-1.67988E-04-7.74300E-05
 -1       517 9.63193E-02-2.83219E-02-3.05170E-02 1.18761E-03 7.19391E-04-5.21559E-03
 -1       518 4.77767E-02-1.88087E-02-1.72262E-02 7.27189E-03-7.94462E-05 1.47969E-05
 -1       519 9.70930E-02-2.82315E-02-3.11756E-02 9.74122E-04-6.39381E-04 4.94341E-03
 -1       520 3.99281E-02-1.46183E-02-1.23337E-02 5.49501E-03-1.02456E-03 1.00513E-02
 -1       521 3.92625E-02-1.49780E-02-1.23001E-02 5.38629E-03 8.70356E-04-1.03045E-02
 -1       522 1.72008E-01-6.79732E-02-3.82187E-02 4.06761E-03-8.57941E-04-1.44959E-02
 -1       523 1.54388E-01-5.28221E-02-3.83758E-02-2.53433E-03 1.23636E-03 1.46539E-02
 -1       524 7.19938E-02-2.00448E-02-2.56731E-02 1.85344E-03 1.87957E-04-2.31764E-03
 -1       525 1.29710E-01-4.34703E-02-3.26333E-02 1.25485E-03-4.29738E-04-1.20419E-03
 -1       526 1.11565E-01-3.44922E-02-3.33954E-02 1.80323E-03 4.07845E-04-1.63916E-03
 -1       527 8.54731E-02-2.51125E-02-2.85293E-02 3.93144E-03-8.26193E-04 4.02670E-03
 -1       528 3.53336E-02-1.29950E-02-1.13083E-02 3.79780E-03 7.93515E-05 5.09258E-03
 -1       529 7.34529E-02-2.17903E-02-2.34712E-02 1.63153E-03-1.10175E-03 5.74854E-03
 -1       530 1.66102E-01-7.34882E-02-2.03547E-02 1.01562E-02 1.56616E-03-5.91753E-03
 -1       531 7.19664E-02-2.09537E-02-2.32946E-02 1.96389E-03 7.99080E-04-5.76477E-03
 -1       532 1.70376E-01-7.64919E-02-2.13241E-02 1.04455E-02-1.66218E-03 6.19375E-03
 -1       533 1.16705E-01-3.54940E-02-3.53506E-02 3.06757E-04 9.39383E-04-3.36525E-03
 -1       534 3.55529E-02-1.31337E-02-1.12818E-02 3.92372E-03 2.42678E-04-4.91331E-03
 -1       535 1.18056E-01-3.59854E-02-3.55906E-02-1.50424E-04-8.94943E-04 3.25551E-03
 -1       536 1.28103E-01-4.22548E-02-3.26802E-02 1.67002E-03 2.87462E-04 7.48576E-04
 -1       537 1.13378E-01-3.52861E-02-3.42374E-02 1.38689E-03-8.52267E-04 1.92659E-03
 -1       538 6.65478E-02-1.84343E-02-2.38018E-02 2.05407E-03-3.60660E-04 2.62420E-03
 -1       539 8.78724E-02-2.54865E-02-2.93674E-02 2.82481E-03 6.37528E-04-3.66933E-03
 -1       540 1.34971E-01-4.22470E-02-4.01624E-02-7.94298E-04-1.38110E-03-6.42572E-04
 -1       541 2.35026E-02-8.57056E-03-6.49623E-03 1.52944E-03-7.51418E-05-9.07187E-03
 -1       542 1.81112E-01-8.10656E-02-1.97801E-02 8.39844E-03-1.43980E-03 1.55433E-02
 -1       543 1.34803E-01-4.15924E-02-4.05662E-02-4.40265E-04 1.39203E-03-6.91986E-04
 -1       544 5.50736E-02-1.65496E-02-1.73166E-02 2.27498E-03 9.10302E-04-5.88280E-03
 -1       545 1.86117E-01-8.04119E-02-2.11982E-02 1.50597E-02-1.12902E-03-1.65364E-02
 -1       546 2.60137E-02-1.13773E-02-6.30436E-03 2.71700E-03-2.68494E-04 8.98378E-03
 -1       547 5.48027E-02-1.66120E-02-1.73628E-02 3.24386E-03-9.01104E-04 5.64861E-03
 -1       548 2.10907E-01-7.74333E-02-4.56704E-02 1.87432E-02 5.23026E-04-2.86239E-02
 -1       549 3.33948E-02-1.37443E-02-8.26042E-03 2.48803E-03 3.99730E-05-1.09208E-02
 -1       550 3.31187E-02-1.37965E-02-8.21313E-03 2.81375E-03-2.15089E-04 1.05970E-02
 -1       551 2.09740E-01-8.31108E-02-4.41424E-02 5.99899E-03 5.11237E-04 3.46956E-02
 -1       552 2.17025E-01-4.83613E-02-2.06440E-02 6.66407E-02-3.63164E-05-3.01114E-02
 -1       553 2.45574E-01-6.64614E-02-3.69464E-02 4.81973E-02-1.11616E-02-5.10681E-02
 -1       554 1.68651E-01-5.34011E-02-5.19689E-02-1.40142E-03 5.03641E-03-6.08978E-03
 -1       555 2.51034E-01-7.03394E-02-3.58368E-02 4.51705E-02 1.03336E-02 5.72018E-02
 -1       556 2.21726E-01-7.24626E-02-1.92538E-02 4.41377E-02-3.11583E-03 2.90492E-02
 -1       557 1.64233E-01-5.81478E-02-4.94804E-02-5.37107E-03-2.97882E-03 8.45762E-03
 -1       558 3.78589E-02-8.69068E-03-7.95325E-03-6.05148E-03-2.67318E-03 1.27048E-02
 -1       559 2.09369E-02-8.35375E-03-2.84029E-03-1.49826E-03 8.96715E-05 1.06074E-02
 -1       560 3.38298E-02-1.16276E-02-1.12466E-02 4.53869E-03 1.09886E-03 5.10684E-03
 -1       561 2.12008E-02-8.34053E-03-2.76822E-03-1.79650E-03-4.68052E-05-1.07734E-02
 -1       562 3.84015E-02-8.74209E-03-7.96550E-03-6.32164E-03 2.76477E-03-1.29433E-02
 -1       563 3.38566E-02-1.18311E-02-1.12154E-02 4.37486E-03-1.29799E-03-5.09756E-03
 -1       564 2.09975E-01-6.52760E-02-1.26682E-02 4.75592E-02 3.22984E-03 2.73171E-02
 -1       565 2.07515E-01-6.70551E-02-7.19306E-03 5.04884E-02-1.66015E-03 1.06690E-02
 -1       566 1.96271E-01-6.74811E-02-2.28999E-02 2.63179E-02 5.18247E-04 2.34194E-02
 -1       567 1.63767E-01-5.97248E-02-2.87957E-02 5.52459E-03-1.46790E-03 1.64924E-02
 -1       568 1.68557E-01-5.75715E-02-4.40393E-02-1.65351E-03 2.02890E-03 2.19642E-02
 -1       569 1.95117E-01-6.06599E-02-7.61144E-03 5.05334E-02-4.48615E-03 6.04547E-03
 -1       570 1.92765E-01-4.66617E-02-1.24780E-02 5.72246E-02-3.01248E-03 3.83585E-03
 -1       571 1.74565E-01-8.20553E-02-1.91907E-02 3.92201E-03-2.20841E-04 6.76734E-03
 -1       572 1.91209E-01-4.72518E-02-1.17341E-02 5.54662E-02 3.37546E-03-3.35847E-03
 -1       573 1.94979E-01-5.68288E-02-1.04903E-02 5.25037E-02 3.52017E-03-6.90400E-03
 -1       574 1.82703E-01-4.12818E-02-1.91212E-02 4.82178E-02 1.76838E-04-1.37070E-04
 -1       575 1.61014E-01-6.55348E-02-2.45368E-02 9.63690E-03 1.73918E-03-1.96197E-03
 -1       576 1.61075E-01-6.56039E-02-2.44973E-02 9.30413E-03-2.13351E-03 1.81046E-03
 -1       577 2.11251E-01-4.95011E-02-1.11029E-02 6.54059E-02 5.30345E-07-1.46882E-02
 -1       578 2.04521E-01-6.72427E-02-8.45959E-03 4.81477E-02-1.84774E-03-2.59931E-02
 -1       579 1.71192E-01-7.65116E-02-1.84776E-02 1.14060E-02-2.29365E-04-9.05124E-03
 -1       580 1.79042E-01-7.56973E-02-3.06785E-02 6.79870E-03 1.13410E-04-1.87145E-02
 -1       581 1.95795E-01-5.49502E-02-1.93842E-02 4.50388E-02-4.05184E-04-2.54400E-02
 -1       582 1.85318E-01-6.98920E-02-4.09117E-02 1.22371E-02 4.10566E-04-1.96231E-02
 -1       583 1.51654E-02-5.61827E-03-3.20472E-03-1.57700E-03-1.09284E-04-7.23881E-03
 -1       584 1.66366E-02-5.77559E-03-3.19648E-03-1.72579E-03 1.74753E-04-1.00074E-02
 -1       585 3.15980E-02-1.14366E-02-9.25439E-03 2.98005E-03-7.54267E-04-9.17756E-03
 -1       586 2.54201E-02-1.06666E-02-5.55599E-03 1.10954E-03 4.67719E-04-1.10514E-02
 -1       587 3.45927E-02-1.46147E-02-9.81934E-03 4.35668E-03 7.19070E-04-1.03176E-02
 -1       588 2.03137E-02-8.15834E-03-5.72874E-03 1.78838E-03-4.99412E-04-2.94317E-03
 -1       589 2.01534E-02-9.17425E-03-5.45568E-03 1.19008E-03 1.50706E-04-5.36232E-03
 -1       590 2.87593E-02-1.01610E-02-8.95771E-03 2.99033E-03 7.12391E-04-6.93867E-03
 -1       591 2.02649E-02-8.45266E-03-5.60165E-03 1.18237E-03 4.40003E-04 5.63258E-03
 -1       592 2.03869E-02-7.82481E-03-5.88780E-03 1.54761E-03 5.07663E-04 3.04838E-03
 -1       593 4.15645E-02-1.45867E-02-1.46776E-02 4.71998E-03-1.26572E-03 3.54864E-03
 -1       594 2.78568E-02-1.21561E-02-8.65977E-03 3.54099E-03-4.02496E-05 2.52036E-05
 -1       595 4.16198E-02-1.47786E-02-1.45520E-02 4.85197E-03 1.39752E-03-3.54929E-03
 -1       596 1.78802E-02-6.92619E-03-3.08868E-03-1.18547E-03-5.69636E-04 1.00254E-02
 -1       597 1.65743E-02-6.61883E-03-3.00728E-03-1.05758E-03 1.58745E-04 7.33289E-03
 -1       598 2.93670E-02-1.20874E-02-8.40035E-03 4.17084E-03-1.48620E-04 6.22710E-03
 -1       599 2.54205E-02-1.01787E-02-5.43125E-03 1.40573E-03-6.90033E-04 1.06761E-02
 -1       600 3.28498E-02-1.30974E-02-9.43367E-03 3.96791E-03-5.82635E-04 1.01896E-02
 -1       601 3.47383E-02-1.43471E-02-1.00739E-02 4.54068E-03-8.26136E-04 9.96023E-03
 -1       602 1.20934E-01-3.55074E-02-3.71277E-02-3.22481E-05 1.37310E-04-1.40968E-03
 -1       603 1.38572E-01-4.25909E-02-4.15210E-02-8.34882E-05 3.36802E-03-5.18277E-04
 -1       604 1.46709E-01-4.69762E-02-3.93663E-02 7.10355E-04 1.27525E-03 7.37635E-03
 -1       605 1.50402E-01-4.89883E-02-4.15596E-02-2.20253E-03 1.07905E-03 3.70732E-03
 -1       606 1.01065E-01-2.98634E-02-3.07845E-02 6.45681E-04 5.81366E-04-3.11937E-03
 -1       607 1.12134E-01-3.35846E-02-3.41213E-02 2.10266E-04 4.84356E-04-2.92232E-03
 -1       608 1.25278E-01-3.89577E-02-3.78522E-02-1.55008E-04 5.83151E-04-2.05364E-03
 -1       609 6.70325E-02-1.93280E-02-2.09979E-02 1.18908E-03 4.47690E-04-4.03816E-03
 -1       610 7.98263E-02-2.34563E-02-2.46309E-02 1.14712E-03 1.82776E-04-4.24620E-03
 -1       611 8.38767E-02-2.48314E-02-2.66181E-02 1.60492E-03 5.25857E-04-5.51085E-03
 -1       612 9.06536E-02-2.69062E-02-2.81074E-02 1.06841E-03 2.90750E-04-4.38508E-03
 -1       613 1.05868E-01-3.10042E-02-3.27706E-02 7.03370E-04 8.86418E-04-4.14440E-03
 -1       614 4.77014E-02-1.34922E-02-1.49326E-02 1.87431E-03 1.12794E-03-3.83514E-03
 -1       615 5.79552E-02-1.75337E-02-1.78844E-02 1.33843E-03 1.53811E-04-3.67167E-03
 -1       616 6.30804E-02-1.86764E-02-2.02769E-02 2.07522E-03 9.29122E-04-5.72240E-03
 -1       617 3.82005E-02-1.13148E-02-1.21965E-02 3.26787E-03 1.11515E-03-6.59152E-03
 -1       618 4.57893E-02-1.40607E-02-1.44619E-02 3.70326E-03 6.64007E-04-8.39060E-03
 -1       619 1.38008E-01-4.21576E-02-4.12628E-02 8.96390E-04-1.48538E-03 1.54353E-04
 -1       620 1.20043E-01-3.62331E-02-3.68838E-02-6.11390E-04-1.15467E-04 1.25922E-03
 -1       621 1.50513E-01-4.73895E-02-4.07596E-02 1.21468E-03-2.58186E-03-5.39095E-03
 -1       622 1.44774E-01-4.85802E-02-3.84533E-02-1.02823E-03-1.50460E-03-7.02897E-03
 -1       623 1.13799E-01-3.37448E-02-3.43826E-02-3.82802E-04-2.38640E-04 2.72866E-03
 -1       624 1.01792E-01-2.99800E-02-3.11211E-02 7.27157E-04-7.20901E-04 2.94552E-03
 -1       625 1.24194E-01-3.92981E-02-3.79591E-02-1.63807E-03-5.33529E-04 1.23966E-03
 -1       626 7.99365E-02-2.38104E-02-2.44412E-02 1.15010E-03-1.64492E-04 4.23211E-03
 -1       627 6.68031E-02-1.94278E-02-2.10926E-02 1.17575E-03-6.56679E-04 4.09077E-03
 -1       628 9.15717E-02-2.69538E-02-2.85324E-02 8.60611E-04-3.30293E-04 4.29097E-03
 -1       629 8.52707E-02-2.51941E-02-2.75570E-02 1.37782E-03-8.09846E-04 5.29829E-03
 -1       630 1.06353E-01-3.11562E-02-3.30124E-02 5.47045E-04-1.09749E-03 4.28496E-03
 -1       631 5.81098E-02-1.75280E-02-1.80208E-02 1.53497E-03-1.76095E-04 3.75511E-03
 -1       632 4.79503E-02-1.36034E-02-1.49726E-02 2.37012E-03-9.53732E-04 3.90247E-03
 -1       633 6.27931E-02-1.89583E-02-2.02173E-02 2.55609E-03-9.61051E-04 5.45911E-03
 -1       634 4.70975E-02-1.44967E-02-1.47260E-02 4.27728E-03-8.03263E-04 8.17932E-03
 -1       635 3.89558E-02-1.14040E-02-1.24529E-02 3.60132E-03-1.05756E-03 6.50757E-03
 -1       636 8.66476E-02-2.41481E-02-2.93869E-02 1.13800E-03 2.59219E-04-9.45590E-04
 -1       637 6.94692E-02-1.94067E-02-2.46427E-02 1.74738E-03-1.07435E-04 1.52890E-04
 -1       638 8.40357E-02-2.33533E-02-2.84085E-02 1.48969E-03-2.78166E-04 1.15100E-03
 -1       639 9.40074E-02-2.71337E-02-3.11698E-02 1.79196E-03 5.01301E-04-1.65885E-03
 -1       640 8.06727E-02-2.22192E-02-2.78346E-02 1.34546E-03 4.09731E-04-2.27932E-03
 -1       641 1.13730E-01-3.39590E-02-3.32295E-02 9.79693E-04-2.88433E-04-1.41189E-04
 -1       642 1.27633E-01-4.24165E-02-3.25510E-02 1.21163E-03 2.31894E-04 2.59238E-04
 -1       643 1.14013E-01-3.38233E-02-3.34555E-02 1.10047E-03 5.10882E-04 2.75572E-04
 -1       644 1.05910E-01-3.11478E-02-3.30102E-02 1.09210E-03-5.60824E-05 6.41100E-04
 -1       645 1.20918E-01-3.88533E-02-3.39395E-02 1.64262E-03-1.38443E-03-2.95683E-04
 -1       646 1.19590E-01-3.82319E-02-3.33665E-02 1.96538E-03 8.10868E-04-3.58020E-04
 -1       647 1.05589E-01-3.08824E-02-3.29848E-02 1.07048E-03 5.73664E-05-6.05449E-04
 -1       648 9.88593E-02-2.96035E-02-3.13908E-02 2.04369E-03 3.74969E-04-2.70910E-03
 -1       649 9.29150E-02-2.68516E-02-3.08564E-02 2.02822E-03-5.60692E-04 1.64941E-03
 -1       650 9.77784E-02-2.96753E-02-3.12805E-02 2.07231E-03-7.96602E-04 3.04267E-03
 -1       651 7.69718E-02-2.11825E-02-2.65343E-02 2.03689E-03-5.76911E-04 2.51278E-03
 -1       652 4.00223E-02-1.13228E-02-1.35381E-02 2.05578E-03-8.64481E-05-8.29391E-03
 -1       653 4.66214E-02-1.40427E-02-1.65017E-02 3.82594E-03 2.42393E-04-7.71908E-03
 -1       654 5.62863E-02-1.63796E-02-1.88151E-02 3.15408E-03 8.12751E-04-6.71918E-03
 -1       655 4.61081E-02-1.38923E-02-1.56172E-02 3.01651E-03 3.05859E-04-6.04874E-03
 -1       656 5.26264E-02-1.46226E-02-1.90333E-02 2.10212E-03 4.86916E-04-3.75679E-03
 -1       657 6.51333E-02-1.85926E-02-2.26409E-02 2.86332E-03 8.26256E-04-4.43784E-03
 -1       658 7.35865E-02-2.15110E-02-2.47909E-02 3.44260E-03 1.33744E-03-4.79439E-03
 -1       659 7.96146E-02-2.34552E-02-2.61565E-02 2.37788E-03 1.03270E-03-5.36645E-03
 -1       660 6.61732E-02-1.92987E-02-2.18446E-02 2.50191E-03 8.86977E-04-6.72262E-03
 -1       661 1.43867E-01-4.80405E-02-3.58389E-02 1.80573E-03 1.45642E-03 7.90186E-03
 -1       662 1.49744E-01-5.21351E-02-2.84699E-02 6.89970E-03 1.98795E-04 9.30065E-03
 -1       663 1.33881E-01-4.40096E-02-3.67707E-02 1.03414E-04 1.27217E-03 1.57239E-03
 -1       664 1.26976E-01-3.97994E-02-3.60125E-02 1.11307E-03 1.19531E-03 2.20353E-04
 -1       665 1.13706E-01-3.37226E-02-3.46693E-02 1.33158E-03 4.04404E-04-2.39521E-03
 -1       666 1.22576E-01-3.89792E-02-3.38488E-02 2.38711E-03-2.55596E-04 8.02892E-05
 -1       667 1.33459E-01-4.45822E-02-3.27468E-02 2.70693E-03-6.83025E-05 1.54000E-03
 -1       668 1.39031E-01-4.94673E-02-2.83664E-02 3.91951E-03 1.10669E-04 4.40234E-03
 -1       669 1.44517E-01-5.15043E-02-2.90589E-02 4.74593E-03-1.67420E-04 4.93325E-03
 -1       670 1.43034E-01-4.75918E-02-3.73522E-02-6.15526E-04 7.37577E-04-6.51659E-03
 -1       671 1.32831E-01-4.17666E-02-3.68828E-02-7.71387E-04-2.08719E-04-1.60565E-03
 -1       672 1.51998E-01-5.05021E-02-2.96041E-02 7.60217E-03-1.87191E-06-1.05087E-02
 -1       673 1.42812E-01-4.92130E-02-2.84337E-02 2.72826E-03 9.91199E-04-4.36619E-03
 -1       674 1.40551E-01-5.02577E-02-2.79230E-02 4.27084E-03-5.19450E-05-4.07600E-03
 -1       675 1.31227E-01-4.27441E-02-3.35142E-02-9.41358E-04-8.93306E-04-2.82078E-03
 -1       676 1.22563E-01-3.89206E-02-3.48514E-02-9.49623E-04-3.02939E-04 1.93179E-04
 -1       677 1.16016E-01-3.57981E-02-3.49061E-02 6.66998E-04-6.48918E-04 3.42466E-03
 -1       678 1.25760E-01-4.00245E-02-3.56271E-02-4.29501E-04-3.09954E-04 1.34258E-04
 -1       679 4.66172E-02-1.47458E-02-1.58769E-02 4.65419E-03-4.96741E-04 8.43246E-03
 -1       680 3.91034E-02-1.19197E-02-1.29958E-02 3.56407E-03-1.98913E-04 8.44079E-03
 -1       681 5.54527E-02-1.68397E-02-1.82014E-02 4.00510E-03-1.05175E-03 6.89015E-03
 -1       682 6.50877E-02-1.88409E-02-2.16201E-02 2.60988E-03-9.08625E-04 6.84401E-03
 -1       683 7.90742E-02-2.31443E-02-2.61867E-02 2.50526E-03-1.19290E-03 6.08942E-03
 -1       684 7.16721E-02-2.02987E-02-2.40542E-02 3.16427E-03-6.72728E-04 5.28895E-03
 -1       685 6.16855E-02-1.74786E-02-2.17213E-02 2.64614E-03-7.68982E-04 4.36852E-03
 -1       686 4.98500E-02-1.39677E-02-1.79514E-02 1.81339E-03-3.21830E-04 3.78647E-03
 -1       687 4.55661E-02-1.39613E-02-1.55047E-02 3.21435E-03-2.80582E-04 5.96282E-03
 -1       688 1.33652E-01-5.05091E-02-2.99024E-02-1.69013E-03-2.80264E-04-1.81772E-03
 -1       689 1.32041E-01-4.97613E-02-2.98210E-02-1.51384E-03 3.79796E-04 2.06112E-03
 -1       690 1.03869E-01-3.07119E-02-3.29432E-02 1.47581E-03 4.56192E-04-3.10294E-03
 -1       691 9.23728E-02-2.70103E-02-3.03619E-02 1.86987E-03 3.39250E-04-4.56072E-03
 -1       692 5.69619E-02-1.68627E-02-2.12000E-02 4.11835E-03 4.37974E-04-1.82637E-03
 -1       693 5.41807E-02-1.60224E-02-2.03482E-02 3.96220E-03-7.77089E-04 2.16241E-03
 -1       694 9.13988E-02-2.68926E-02-2.99789E-02 1.89624E-03-6.62149E-04 5.23351E-03
 -1       695 1.03902E-01-3.07861E-02-3.34237E-02 9.85719E-04-6.43091E-04 3.33166E-03
 -1       696 9.88222E-02-2.79728E-02-3.27974E-02 1.25373E-03-2.31005E-05-2.15167E-04
 -1       697 1.35941E-01-4.51902E-02-3.45598E-02 1.81078E-03-8.45138E-04-3.03254E-03
 -1       698 5.95849E-02-1.78900E-02-1.99398E-02 4.27051E-03-1.10625E-03 6.52068E-03
 -1       699 5.73237E-02-1.67097E-02-1.97312E-02 3.57372E-03 9.85024E-04-6.36620E-03
 -1       700 1.36924E-01-4.62936E-02-3.42477E-02 4.08879E-04 1.28430E-03 3.64674E-03
 -1       701 4.70248E-02-1.78357E-02-1.67508E-02 7.06046E-03-5.23205E-05 1.82325E-05
 -1       702 9.62554E-02-2.77581E-02-3.10530E-02 1.04316E-03-5.41838E-04 5.20579E-03
 -1       703 1.64667E-01-6.91017E-02-3.01709E-02 5.98689E-03 8.83041E-05-1.96099E-04
 -1       704 9.82421E-02-2.92552E-02-3.08854E-02 1.00183E-03 5.94196E-04-5.12782E-03
 -1       705 1.50973E-01-5.20944E-02-3.77437E-02-4.11941E-03 8.43704E-04 1.31733E-02
 -1       706 1.68820E-01-6.25888E-02-3.91086E-02 2.94527E-03-4.68932E-04-1.50457E-02
 -1       707 4.09950E-02-1.35291E-02-1.31161E-02 4.04792E-03 8.92456E-04-9.25616E-03
 -1       708 3.75475E-02-1.13753E-02-1.28328E-02 3.71520E-03-8.05187E-04 1.01535E-02
 -1       709 1.24477E-01-4.04408E-02-3.35765E-02 7.06333E-04-3.24173E-04-1.09060E-03
 -1       710 6.77908E-02-2.03459E-02-2.34788E-02 3.89281E-03 2.99936E-04-2.80748E-03
 -1       711 8.73998E-02-2.52860E-02-2.93492E-02 2.88321E-03-7.43372E-04 3.28694E-03
 -1       712 1.10732E-01-3.31640E-02-3.37888E-02 8.39510E-04 7.04153E-04-1.60292E-03
 -1       713 1.62991E-01-7.30312E-02-2.13584E-02 4.90953E-03-1.60624E-03 6.67779E-03
 -1       714 1.18047E-01-3.68521E-02-3.55337E-02 1.69412E-04 9.23237E-04-3.19705E-03
 -1       715 3.37928E-02-1.25502E-02-1.12130E-02 5.21363E-03-4.66140E-04-5.29778E-03
 -1       716 1.18263E-01-3.64732E-02-3.57221E-02-3.38176E-04-7.95305E-04 2.99346E-03
 -1       717 3.47569E-02-1.25670E-02-1.12565E-02 4.16845E-03-3.82530E-05 4.91356E-03
 -1       718 7.27145E-02-2.14662E-02-2.32398E-02 1.81823E-03-8.51777E-04 5.91920E-03
 -1       719 1.67841E-01-7.64580E-02-2.17722E-02 6.14557E-03 1.59634E-03-6.23986E-03
 -1       720 7.28591E-02-2.15262E-02-2.32067E-02 1.73711E-03 9.72044E-04-5.75400E-03
 -1       721 6.74138E-02-1.90727E-02-2.40617E-02 2.48044E-03-4.67171E-04 2.58882E-03
 -1       722 8.74525E-02-2.59650E-02-2.90911E-02 1.98467E-03 8.75600E-04-4.66343E-03
 -1       723 1.27432E-01-4.15680E-02-3.30942E-02 8.34875E-04 2.32055E-04 1.33538E-03
 -1       724 1.10527E-01-3.41946E-02-3.33441E-02 1.89894E-03-5.36357E-04 2.09425E-03
 -1       725 5.50292E-02-1.64679E-02-1.76320E-02 2.05125E-03 7.48323E-04-5.24502E-03
 -1       726 1.85932E-01-8.15315E-02-1.92401E-02 1.38667E-02 6.43153E-05-1.58206E-02
 -1       727 2.59058E-02-1.11205E-02-6.19880E-03 2.58603E-03-2.86476E-05 8.62799E-03
 -1       728 5.38197E-02-1.62058E-02-1.73812E-02 3.11413E-03-3.53720E-04 4.96747E-03
 -1       729 1.33966E-01-4.05977E-02-4.03941E-02-9.13362E-04-6.15628E-04-3.56352E-04
 -1       730 2.53141E-02-1.05306E-02-6.54275E-03 2.79280E-03-1.82310E-04-8.37087E-03
 -1       731 1.89969E-01-7.98931E-02-1.96373E-02 2.03961E-02 9.01920E-05 1.69718E-02
 -1       732 1.35046E-01-4.15608E-02-4.08438E-02-4.19618E-04 1.06837E-03-8.96566E-04
 -1       733 3.04637E-02-1.24778E-02-7.71342E-03 3.09016E-03 4.96172E-04-1.16167E-02
 -1       734 2.12976E-01-8.01187E-02-4.32244E-02 1.86523E-02 2.11792E-04-2.93659E-02
 -1       735 2.06977E-01-8.18506E-02-4.49938E-02 3.87884E-03 8.38653E-04 3.31872E-02
 -1       736 3.03485E-02-1.24725E-02-7.55119E-03 3.04643E-03-5.56541E-04 1.18038E-02
 -1       737 2.20269E-02-8.34768E-03-2.92468E-03-3.31037E-03-2.65302E-04-1.14574E-02
 -1       738 3.75081E-02-8.99049E-03-7.28229E-03-6.33818E-03 2.49805E-03-1.33015E-02
 -1       739 3.39969E-02-1.23247E-02-1.09325E-02 5.26410E-03-8.68617E-04-4.93146E-03
 -1       740 2.19158E-02-8.20950E-03-2.90120E-03-3.44991E-03 1.07457E-04 1.14712E-02
 -1       741 3.76315E-02-8.93016E-03-7.21872E-03-6.48058E-03-2.69188E-03 1.34542E-02
 -1       742 3.39619E-02-1.26405E-02-1.09608E-02 5.38700E-03 1.02928E-03 4.88364E-03
 -1       743 2.20020E-01-7.24325E-02-1.98744E-02 4.17677E-02-2.87121E-03 2.78040E-02
 -1       744 2.49098E-01-6.94802E-02-3.66940E-02 4.41076E-02 9.85696E-03 5.62966E-02
 -1       745 1.62395E-01-5.73458E-02-4.92800E-02-6.57014E-03-3.13318E-03 7.95151E-03
 -1       746 2.19987E-01-4.94667E-02-1.99773E-02 6.75895E-02 7.65438E-04-3.18024E-02
 -1       747 2.47061E-01-6.77255E-02-3.55630E-02 4.85747E-02-1.09665E-02-5.19505E-02
 -1       748 1.64350E-01-5.63805E-02-5.21838E-02-6.24646E-03 8.38086E-03-3.58472E-03
 -1       749 1.65324E-02-6.85752E-03-3.11289E-03-9.15891E-04 1.11088E-04 7.22512E-03
 -1       750 1.89378E-02-6.04796E-03-3.08736E-03-2.62250E-03-1.75221E-04 9.53173E-03
 -1       751 3.03565E-02-1.02066E-02-9.18775E-03 2.88281E-03-8.04440E-05 1.01455E-02
 -1       752 2.44010E-02-6.86609E-03-6.12127E-03-1.29180E-03 2.11006E-04 1.10668E-02
 -1       753 3.11064E-02-1.01836E-02-1.09419E-02 3.56597E-03-7.04496E-04 1.11174E-02
 -1       754 1.99628E-02-7.73775E-03-5.89436E-03 1.37415E-03 3.37248E-04 2.98168E-03
 -1       755 1.99809E-02-8.24805E-03-5.51715E-03 1.04310E-03 3.57565E-04 5.63864E-03
 -1       756 2.98665E-02-1.20239E-02-8.70949E-03 4.09145E-03-1.87056E-04 6.20377E-03
 -1       757 1.98587E-02-8.15199E-03-5.57663E-03 1.05544E-03-6.97860E-04-5.71514E-03
 -1       758 1.99109E-02-7.47700E-03-5.68128E-03 1.35896E-03-5.58464E-04-3.08449E-03
 -1       759 4.08684E-02-1.33539E-02-1.46132E-02 5.18350E-03 7.33750E-04-3.38554E-03
 -1       760 2.67710E-02-1.16816E-02-8.55818E-03 3.31831E-03 1.45537E-05-2.75919E-05
 -1       761 4.04170E-02-1.43153E-02-1.42868E-02 5.31790E-03-1.28548E-03 3.42631E-03
 -1       762 1.86153E-02-5.74370E-03-3.17709E-03-2.49904E-03 4.07956E-04-9.43715E-03
 -1       763 1.60517E-02-6.57774E-03-3.36928E-03-1.10053E-03-1.85595E-04-7.24405E-03
 -1       764 2.96219E-02-1.18483E-02-8.84900E-03 4.23327E-03-2.80470E-04-6.54700E-03
 -1       765 3.03054E-02-1.12045E-02-9.46954E-03 3.95129E-03-5.33427E-04-9.33935E-03
 -1       766 2.47514E-02-7.48710E-03-6.17468E-03-1.36372E-03-1.57921E-04-1.10290E-02
 -1       767 3.15841E-02-1.03857E-02-1.11706E-02 3.45417E-03 1.10794E-03-1.09660E-02
 -1       768 2.10109E-01-6.69951E-02-6.91808E-03 5.29590E-02 1.58895E-03-1.23188E-02
 -1       769 2.12233E-01-4.96052E-02-1.10100E-02 6.45455E-02-2.42996E-03-2.52292E-02
 -1       770 1.75906E-01-7.00889E-02-2.81073E-02 1.21040E-02-6.80499E-04-1.91084E-02
 -1       771 1.97225E-01-4.56711E-02-2.61954E-02 4.91443E-02-2.30353E-04-2.40141E-02
 -1       772 1.83959E-01-7.20660E-02-4.24671E-02 6.55245E-03 1.18730E-03-2.13437E-02
 -1       773 1.86633E-01-5.91821E-02-1.24106E-02 4.44242E-02 4.24674E-03-3.11746E-04
 -1       774 1.94765E-01-6.08742E-02-1.03751E-02 4.89360E-02 3.83071E-03-6.83817E-03
 -1       775 1.75170E-01-8.14999E-02-1.89111E-02 4.85096E-03 4.94428E-04-8.53710E-03
 -1       776 1.94949E-01-5.54198E-02-1.44845E-02 5.13233E-02-2.62019E-03 8.93692E-03
 -1       777 1.84962E-01-5.97216E-02-1.16103E-02 4.19186E-02-4.46970E-03-1.02069E-04
 -1       778 1.64834E-01-6.85034E-02-2.63173E-02 5.47333E-03 9.80408E-04 2.57732E-03
 -1       779 1.82960E-01-5.13181E-02-1.35051E-02 4.48698E-02 2.38447E-05-1.44794E-05
 -1       780 1.65146E-01-6.96015E-02-2.56240E-02 6.56629E-03-6.23750E-04-2.51630E-03
 -1       781 2.12627E-01-6.68756E-02-1.09419E-02 5.03360E-02 3.12379E-03 2.52065E-02
 -1       782 2.15455E-01-5.11663E-02-9.72556E-03 6.95138E-02 8.32860E-04 1.46962E-02
 -1       783 1.72199E-01-7.63293E-02-1.83790E-02 1.10839E-02-2.15463E-03 9.98027E-03
 -1       784 1.63433E-01-6.00130E-02-2.82388E-02 5.22393E-03-1.98007E-03 1.51275E-02
 -1       785 1.94174E-01-6.81885E-02-2.28802E-02 2.31545E-02 1.24845E-03 2.35697E-02
 -1       786 1.64667E-01-5.55661E-02-4.43677E-02-3.61500E-03 2.23375E-03 2.11833E-02
 -1       787 5.78512E-02-1.74052E-02-1.80499E-02 1.68449E-03 2.71940E-04 3.46465E-03
 -1       788 4.69394E-02-1.40413E-02-1.47690E-02 2.44315E-03-7.35414E-04 3.24195E-03
 -1       789 4.66863E-02-1.31595E-02-1.52278E-02 2.93342E-03-5.35490E-04 7.37225E-03
 -1       790 4.00420E-02-1.22045E-02-1.27400E-02 3.16027E-03-7.27101E-04 5.82719E-03
 -1       791 8.02213E-02-2.36212E-02-2.47402E-02 2.04671E-03-2.89621E-04 3.84268E-03
 -1       792 6.67919E-02-1.92782E-02-2.10576E-02 1.32114E-03-4.66777E-04 4.17638E-03
 -1       793 6.30650E-02-1.87809E-02-2.00404E-02 2.35027E-03-7.21682E-04 5.52344E-03
 -1       794 1.12164E-01-3.35710E-02-3.41709E-02 1.83204E-04-5.82178E-04 2.63143E-03
 -1       795 1.01161E-01-3.08686E-02-3.06292E-02 1.10365E-03-6.68710E-04 2.72282E-03
 -1       796 1.06382E-01-3.12410E-02-3.32455E-02 6.68141E-04-5.10349E-04 4.40970E-03
 -1       797 9.11390E-02-2.70334E-02-2.81732E-02 2.03063E-03-3.24651E-04 4.10716E-03
 -1       798 8.40128E-02-2.46102E-02-2.71392E-02 1.36772E-03-4.83657E-04 5.70615E-03
 -1       799 1.38394E-01-4.12945E-02-4.14231E-02 1.10272E-03-1.27227E-03-3.34228E-04
 -1       800 1.21660E-01-3.56232E-02-3.72755E-02-9.78200E-05-1.33442E-05 8.73660E-04
 -1       801 1.25535E-01-3.88358E-02-3.78101E-02-7.69220E-04-7.86621E-04 1.66410E-03
 -1       802 1.43959E-01-4.69502E-02-3.95290E-02-4.07424E-04-5.67388E-04-6.37290E-03
 -1       803 1.54033E-01-4.79295E-02-4.18010E-02 7.44372E-04-1.07655E-03-5.42280E-03
 -1       804 5.77157E-02-1.74252E-02-1.79790E-02 1.63712E-03-5.35200E-05-3.42174E-03
 -1       805 4.73038E-02-1.43609E-02-1.48416E-02 2.22554E-03 9.11665E-04-3.24491E-03
 -1       806 4.86999E-02-1.47808E-02-1.53152E-02 2.66323E-03 9.71374E-04-7.95842E-03
 -1       807 4.07320E-02-1.27898E-02-1.26910E-02 3.48236E-03 1.13756E-03-5.72269E-03
 -1       808 7.93788E-02-2.37258E-02-2.42421E-02 1.48723E-03 2.30217E-04-4.15915E-03
 -1       809 6.68201E-02-1.94484E-02-2.09078E-02 1.06575E-03 7.92069E-04-4.11559E-03
 -1       810 6.26210E-02-1.88192E-02-2.03093E-02 1.70714E-03 8.03466E-04-5.46972E-03
 -1       811 1.12125E-01-3.33825E-02-3.43369E-02 3.51383E-04 6.19545E-04-3.12418E-03
 -1       812 1.00191E-01-2.99527E-02-3.07538E-02 1.96797E-04 2.04841E-04-3.44774E-03
 -1       813 1.06391E-01-3.28974E-02-3.30521E-02-2.51776E-04 3.80123E-04-4.28579E-03
 -1       814 9.27811E-02-2.70226E-02-2.85831E-02 8.95472E-04 2.60987E-04-4.18114E-03
 -1       815 8.46810E-02-2.51827E-02-2.72107E-02 1.70089E-03 1.08262E-03-5.06346E-03
 -1       816 1.38687E-01-4.22532E-02-4.17274E-02-3.50715E-04 3.31066E-03-7.37885E-04
 -1       817 1.21233E-01-3.54623E-02-3.73268E-02 7.62196E-05 1.02695E-04-1.50708E-03
 -1       818 1.25445E-01-3.91933E-02-3.79340E-02 8.71750E-05 7.53337E-04-2.38347E-03
 -1       819 1.45823E-01-4.63103E-02-3.92773E-02 2.69525E-04 5.58720E-04 6.54487E-03
 -1       820 1.48787E-01-4.74622E-02-4.11437E-02-2.79483E-03 7.41501E-04 3.24198E-03
 -1       821 1.25339E-01-4.02829E-02-3.32778E-02 1.09571E-03-1.64873E-04-2.96789E-04
 -1       822 1.11838E-01-3.29529E-02-3.38286E-02 9.17705E-04-5.93005E-04-2.00657E-04
 -1       823 1.13281E-01-3.35323E-02-3.35048E-02 9.11863E-04 2.29066E-04 2.81754E-04
 -1       824 1.17521E-01-3.76420E-02-3.33435E-02 1.82725E-03-7.91437E-04 6.29281E-04
 -1       825 1.04409E-01-3.04394E-02-3.29134E-02 1.25527E-03-4.66089E-05 7.12085E-04
 -1       826 6.68194E-02-1.93695E-02-2.37745E-02 3.43104E-03-3.53045E-04 5.53292E-05
 -1       827 8.32772E-02-2.41523E-02-2.82512E-02 2.46319E-03 4.52073E-04-7.73584E-04
 -1       828 8.35495E-02-2.31551E-02-2.85331E-02 1.47865E-03-1.16180E-04 1.15538E-03
 -1       829 7.70156E-02-2.32902E-02-2.60887E-02 2.35037E-03 3.39625E-04-3.98429E-03
 -1       830 9.25132E-02-2.68966E-02-3.05940E-02 1.97390E-03 2.65691E-04-2.53336E-03
 -1       831 7.80884E-02-2.14839E-02-2.71604E-02 1.78519E-03-7.89096E-04 2.20470E-03
 -1       832 9.28678E-02-2.66019E-02-3.12122E-02 2.01530E-03-5.72889E-04 1.19976E-03
 -1       833 9.73512E-02-2.92328E-02-3.13523E-02 1.95854E-03-4.75288E-04 2.75542E-03
 -1       834 9.90173E-02-2.99292E-02-3.13266E-02 1.34886E-03 8.80570E-04-3.02761E-03
 -1       835 1.05410E-01-3.07232E-02-3.33707E-02 9.21038E-04 1.35464E-04-6.93321E-04
 -1       836 1.18849E-01-3.68220E-02-3.38542E-02 1.17356E-03 5.31690E-04 9.69403E-05
 -1       837 1.43570E-01-4.98144E-02-3.64428E-02-2.33687E-04-6.61740E-04-6.76074E-03
 -1       838 1.51413E-01-5.19514E-02-2.80251E-02 7.94771E-03-9.97122E-04-9.75307E-03
 -1       839 1.32912E-01-4.35172E-02-3.67443E-02-5.11805E-04-1.33839E-03-1.24791E-03
 -1       840 1.37121E-01-4.82015E-02-2.81485E-02 2.88334E-03-4.29176E-04-4.48479E-03
 -1       841 1.43736E-01-5.16425E-02-2.89189E-02 5.05409E-03 4.30402E-05-4.87447E-03
 -1       842 1.30606E-01-4.39385E-02-3.30963E-02 1.53840E-03-2.91113E-04-1.64011E-03
 -1       843 1.22145E-01-3.91124E-02-3.37763E-02 2.22798E-03 1.48107E-04 2.47466E-04
 -1       844 1.13801E-01-3.39673E-02-3.48009E-02 8.74390E-04-2.91505E-04 2.63160E-03
 -1       845 1.27568E-01-4.04126E-02-3.63064E-02 6.25426E-04-1.21865E-03 2.56664E-05
 -1       846 4.67927E-02-1.38159E-02-1.63563E-02 3.13004E-03-1.24242E-03 8.19611E-03
 -1       847 3.95613E-02-1.18599E-02-1.33492E-02 2.85180E-03-5.71984E-04 8.29640E-03
 -1       848 5.63141E-02-1.67415E-02-1.88628E-02 3.69256E-03-1.48481E-03 6.74918E-03
 -1       849 7.92541E-02-2.31631E-02-2.64079E-02 1.71279E-03-7.79030E-04 5.54648E-03
 -1       850 6.72027E-02-2.00001E-02-2.20152E-02 2.59669E-03-9.04193E-04 7.42410E-03
 -1       851 7.37631E-02-2.18979E-02-2.46850E-02 3.59720E-03-1.17958E-03 4.25585E-03
 -1       852 6.26338E-02-1.82348E-02-2.14958E-02 3.76157E-03-7.11221E-04 4.42898E-03
 -1       853 5.02977E-02-1.47515E-02-1.80855E-02 3.05335E-03-4.46551E-04 3.60632E-03
 -1       854 4.51048E-02-1.39049E-02-1.53062E-02 3.42531E-03-1.91004E-04 5.49700E-03
 -1       855 4.97502E-02-1.54481E-02-1.61600E-02 3.33878E-03 9.56524E-04-7.04976E-03
 -1       856 5.57028E-02-1.65720E-02-1.82286E-02 2.81593E-03 8.49505E-04-6.68239E-03
 -1       857 3.99829E-02-1.27351E-02-1.35454E-02 4.04122E-03 4.47687E-04-8.00850E-03
 -1       858 5.00609E-02-1.49907E-02-1.77343E-02 3.86082E-03-3.61930E-06-4.38928E-03
 -1       859 4.51206E-02-1.40669E-02-1.55676E-02 4.00187E-03 3.36910E-05-5.90162E-03
 -1       860 6.25446E-02-1.80908E-02-2.17739E-02 3.66785E-03 1.01574E-03-4.80955E-03
 -1       861 7.11361E-02-2.06162E-02-2.46287E-02 2.61098E-03 9.40148E-04-5.18036E-03
 -1       862 7.90416E-02-2.31055E-02-2.65104E-02 2.27871E-03 9.73959E-04-5.25440E-03
 -1       863 6.46957E-02-1.89036E-02-2.12894E-02 2.74999E-03 5.09313E-04-6.33130E-03
 -1       864 1.43932E-01-4.90928E-02-3.52297E-02 7.43196E-04 1.98452E-03 7.97718E-03
 -1       865 1.52926E-01-5.30079E-02-2.95822E-02 7.27616E-03 3.05563E-04 1.06531E-02
 -1       866 1.34506E-01-4.48378E-02-3.67023E-02-3.68619E-04 1.64146E-03 2.09671E-03
 -1       867 1.13282E-01-3.47081E-02-3.42227E-02 5.00033E-04 4.06585E-05-2.53296E-03
 -1       868 1.28400E-01-4.16647E-02-3.56890E-02 8.45759E-04 1.88883E-03 1.62752E-03
 -1       869 1.21856E-01-3.78889E-02-3.43351E-02 1.03276E-03 4.44485E-04 3.28803E-04
 -1       870 1.31901E-01-4.41696E-02-3.28277E-02 8.59104E-04 2.26439E-04 1.82066E-03
 -1       871 1.39482E-01-4.89655E-02-2.77081E-02 3.77023E-03 4.42245E-04 4.27561E-03
 -1       872 1.44732E-01-5.21512E-02-2.79202E-02 4.44547E-03-2.43148E-04 5.03906E-03
 -1       873 5.46290E-02-1.74228E-02-2.00890E-02 5.45054E-03 2.06028E-04-2.06948E-03
 -1       874 5.48563E-02-1.71099E-02-2.01147E-02 4.92226E-03-8.71068E-04 2.11478E-03
 -1       875 9.16630E-02-2.64652E-02-3.02167E-02 1.35178E-03-5.09913E-04 4.50620E-03
 -1       876 1.02891E-01-3.02448E-02-3.28847E-02 1.08274E-03-7.54951E-04 3.50636E-03
 -1       877 1.27775E-01-4.86557E-02-3.10715E-02-4.32527E-03-1.00069E-03-2.34042E-03
 -1       878 1.30045E-01-4.91716E-02-3.09525E-02-3.73025E-03 1.66502E-03 2.06658E-03
 -1       879 1.04084E-01-3.15376E-02-3.23074E-02 8.34009E-04 5.35214E-04-3.75794E-03
 -1       880 9.32590E-02-2.78124E-02-3.01465E-02 1.63986E-03 5.08762E-04-5.36257E-03
 -1       881 9.98577E-02-3.27883E-02-2.87898E-02 5.29533E-02-1.88549E-04 6.21808E-04
 -1       882 1.04000E-01-2.80025E-02-3.34568E-02 4.78948E-02-2.40225E-05-3.21790E-03
 -1       883 8.72800E-02-2.74341E-02-2.60683E-02 3.86328E-02-7.18348E-04-1.73071E-03
 -1       884 8.96868E-02-2.82971E-02-2.72624E-02 3.94922E-02 1.26105E-03 1.52366E-03
 -1       885 1.06566E-01-2.75793E-02-3.48366E-02 4.72456E-02-1.91323E-04 1.66827E-03
 -1       886 1.02265E-01-2.31338E-02-4.08829E-02 4.45032E-02-1.13830E-03-2.29618E-03
 -1       887 9.59665E-02-3.06034E-02-2.80938E-02 4.00934E-02 6.45449E-04-5.13293E-04
 -1       888 9.69313E-02-3.10276E-02-2.82199E-02 3.97008E-02-3.12904E-04 5.25011E-04
 -1       889 1.02364E-01-2.26188E-02-4.10464E-02 4.46830E-02 8.39330E-04 1.40805E-03
 -1       890 1.26974E-01-2.72350E-02-5.12117E-02 4.76286E-02 3.36612E-04 3.02193E-03
 -1       891 7.27228E-02-2.14831E-02-2.36274E-02 2.06376E-02-1.65401E-03-1.93400E-03
 -1       892 8.03407E-02-2.28566E-02-2.82186E-02 2.14257E-02 1.81120E-03-1.02274E-03
 -1       893 1.15691E-01-2.80711E-02-4.04795E-02 4.63678E-02-7.39847E-05-5.22332E-03
 -1       894 1.01282E-01-3.14691E-02-3.05248E-02 4.95470E-02-1.07585E-04 3.38646E-04
 -1       895 9.73565E-02-2.96958E-02-3.00760E-02 4.88848E-02 6.51143E-04 1.16730E-03
 -1       896 1.00570E-01-2.95084E-02-3.20335E-02 5.11838E-02-2.50077E-04-2.42806E-03
 -1       897 9.77546E-02-1.75500E-02-4.18466E-02 3.43643E-02-6.18443E-05 2.49734E-03
 -1       898 1.07378E-01-1.42324E-02-4.83476E-02 4.61088E-02 1.55459E-03-1.73101E-03
 -1       899 8.35647E-02-2.63105E-02-2.45396E-02 2.93204E-02 1.05814E-03 1.40134E-04
 -1       900 1.06350E-01-3.25126E-02-3.26198E-02 3.24875E-02-5.79404E-04 2.46825E-03
 -1       901 1.04003E-01-1.41405E-02-4.64311E-02 4.57939E-02-1.63938E-03-5.89261E-04
 -1       902 1.05980E-01-3.23725E-02-3.24145E-02 3.18950E-02 5.03765E-04-1.57975E-03
 -1       903 9.92781E-02-1.97236E-02-4.29549E-02 3.56385E-02 5.64965E-04-4.16135E-04
 -1       904 8.41434E-02-2.66030E-02-2.49566E-02 2.93831E-02-8.28212E-04-2.46875E-05
 -1       905 9.91224E-02-3.09744E-02-3.03620E-02 4.92357E-02-8.84129E-04-9.83881E-04
 -1       906 9.90067E-02-3.22122E-02-2.89495E-02 4.94051E-02 3.96222E-04-1.42283E-04
 -1       907 9.78212E-02-2.82837E-02-2.97665E-02 5.16293E-02 1.45652E-04 1.53666E-03
 -1       908 9.59899E-02-3.10563E-02-2.82223E-02 4.39899E-02-7.08484E-04-4.03768E-05
 -1       909 1.02831E-01-3.14083E-02-3.16903E-02 4.52775E-02 3.08080E-04-1.72538E-03
 -1       910 8.67826E-02-1.57504E-02-3.66308E-02 2.29623E-02 7.73771E-04-1.36096E-03
 -1       911 6.83603E-02-2.14289E-02-2.05812E-02 1.91338E-02-1.00817E-03-9.90474E-05
 -1       912 1.22520E-01-9.57924E-03-5.42070E-02 4.79830E-02-1.11708E-03 9.49781E-03
 -1       913 1.20130E-01-3.64310E-02-3.75415E-02 2.37100E-02 5.81554E-04-3.52075E-03
 -1       914 6.77138E-02-2.14847E-02-2.00053E-02 1.90239E-02 4.58413E-04 1.32531E-05
 -1       915 1.21030E-01-9.73998E-03-5.51920E-02 4.78743E-02 7.17186E-04-7.21084E-03
 -1       916 1.20107E-01-3.53750E-02-3.78064E-02 2.64499E-02-1.22758E-03 4.11370E-03
 -1       917 8.90452E-02-1.52595E-02-3.66859E-02 2.25698E-02-1.67669E-04 2.69499E-03
 -1       918 6.73556E-02-1.81964E-02-2.46972E-02 5.16121E-03 1.80816E-03 7.28647E-04
 -1       919 6.82138E-02-1.66507E-02-2.53530E-02 4.24447E-03-2.21987E-03 2.32453E-03
 -1       920 1.73845E-01-3.59584E-02-6.62476E-02 4.63948E-02 1.64846E-03-9.54072E-03
 -1       921 1.69538E-01-3.46445E-02-7.00928E-02 5.05894E-02-1.19509E-03-2.34476E-04
 -1       922 1.64204E-01-1.24977E-02-5.77352E-02 4.60875E-02-2.71239E-03 3.15122E-02
 -1       923 2.25805E-01-3.41201E-02-6.01528E-02 6.33670E-02 1.00578E-02 4.04588E-02
 -1       924 1.47079E-01-4.47148E-02-5.35925E-02 1.96611E-02-3.82921E-03-1.08720E-02
 -1       925 7.85153E-02-9.77204E-03-2.28096E-02 5.47852E-03 4.80744E-04 1.58496E-02
 -1       926 6.08678E-02-9.09067E-03-1.92157E-02-6.91928E-03-2.94578E-03 1.01786E-02
 -1       927 4.98344E-02-1.55763E-02-1.69930E-02 6.27178E-03 2.44964E-04-6.66140E-04
 -1       928 7.55026E-02-8.91630E-03-2.14502E-02 6.47916E-03 6.20413E-04-1.53570E-02
 -1       929 6.10955E-02-1.03828E-02-1.75704E-02-6.57124E-03 3.08231E-03-9.82734E-03
 -1       930 4.87834E-02-1.68264E-02-1.45138E-02 6.09140E-03-1.51317E-03 7.54818E-04
 -1       931 1.61343E-01-1.39306E-02-4.10397E-02 4.64903E-02 2.50428E-03-4.46043E-02
 -1       932 2.22673E-01-3.44744E-02-5.90739E-02 5.92020E-02-1.11913E-02-4.24637E-02
 -1       933 1.50104E-01-4.58889E-02-5.13262E-02 1.80510E-02 5.00495E-03 6.16452E-03
 -1       934 1.31281E-01-4.34442E-03-3.34087E-02 4.32773E-02-5.61218E-04 4.00425E-02
 -1       935 1.40726E-01-5.53135E-03-4.37575E-02 4.81957E-02 1.22162E-03 3.43775E-02
 -1       936 1.14328E-01-1.77283E-02-4.35411E-02 4.75465E-02-2.53026E-03 1.29194E-03
 -1       937 1.39021E-01-1.49104E-02-4.74895E-02 4.83536E-02-5.22104E-04 1.81214E-02
 -1       938 1.29795E-01-3.43395E-02-4.55429E-02 4.71578E-02-1.44373E-04-4.49379E-03
 -1       939 1.06325E-01-6.86614E-03-3.61759E-02 3.79914E-02-3.10415E-03 2.05585E-02
 -1       940 1.16841E-01-8.26801E-03-3.45194E-02 4.21369E-02-2.25811E-03 2.81351E-02
 -1       941 1.10075E-01-1.14824E-02-4.94815E-02 4.52822E-02-1.58767E-03 3.52572E-03
 -1       942 1.00116E-01-8.54491E-03-3.07287E-02 2.92176E-02 1.31923E-03 2.26733E-02
 -1       943 1.03150E-01-1.00276E-02-2.51770E-02 3.37424E-02 9.21572E-04 2.71225E-02
 -1       944 9.96978E-02-2.00784E-02-3.92710E-02 4.00636E-02-2.91738E-05 1.96867E-03
 -1       945 1.04592E-01-1.18489E-02-2.99022E-02 3.77581E-02-1.15747E-03 2.07261E-02
 -1       946 1.05319E-01-1.96888E-02-4.23704E-02 4.48448E-02-3.17327E-04-5.19285E-04
 -1       947 9.03816E-02-8.48861E-03-2.75222E-02 1.20768E-02-1.85327E-03 1.83893E-02
 -1       948 9.90841E-02-7.44257E-03-2.96260E-02 2.24458E-02-4.62796E-06 2.37544E-02
 -1       949 9.24647E-02-1.59671E-02-3.99173E-02 2.98391E-02-9.06031E-04 4.57971E-04
 -1       950 7.93093E-02-1.89264E-02-2.70150E-02 2.10386E-02-1.94959E-04 1.38662E-03
 -1       951 8.03625E-02-1.37384E-02-2.56951E-02 1.26876E-02-7.05503E-04 9.78747E-03
 -1       952 6.73544E-02-1.96386E-02-2.21837E-02 1.33475E-02-2.45178E-03-1.54416E-03
 -1       953 9.81504E-02-8.94279E-03-2.91949E-02 2.27118E-02-6.75526E-04-2.33752E-02
 -1       954 8.69962E-02-8.12385E-03-2.88823E-02 1.04633E-02 1.34780E-03-1.66801E-02
 -1       955 8.36496E-02-1.84725E-02-3.17439E-02 2.03997E-02-4.92996E-04-1.42482E-03
 -1       956 8.00171E-02-1.16315E-02-2.41303E-02 1.21847E-02 9.26374E-04-1.48614E-02
 -1       957 7.31436E-02-2.04132E-02-2.69224E-02 1.51593E-02 2.79864E-03 2.73649E-03
 -1       958 1.04304E-01-1.09916E-02-2.63907E-02 3.46117E-02-4.83407E-04-2.58080E-02
 -1       959 1.00969E-01-9.77348E-03-3.21596E-02 2.99033E-02-1.56748E-03-2.10280E-02
 -1       960 9.32033E-02-1.77472E-02-3.83967E-02 2.98283E-02 1.90644E-03-3.72857E-04
 -1       961 1.16369E-01-5.76832E-03-3.85332E-02 4.12281E-02 2.57811E-03-2.70110E-02
 -1       962 1.07388E-01-7.05584E-03-3.65649E-02 3.86603E-02 3.18892E-03-2.19210E-02
 -1       963 1.04429E-01-1.91073E-02-4.38227E-02 4.54227E-02 3.10940E-04 2.23980E-04
 -1       964 1.04499E-01-1.17206E-02-2.99646E-02 3.78989E-02 1.14395E-03-2.05704E-02
 -1       965 9.83366E-02-1.95537E-02-4.05248E-02 4.12877E-02 4.27984E-04 1.11966E-04
 -1       966 1.39137E-01-5.53490E-03-3.37527E-02 4.80962E-02-1.21631E-03-4.22218E-02
 -1       967 1.27101E-01-2.27990E-03-4.28566E-02 4.17000E-02 1.88825E-03-3.13177E-02
 -1       968 1.12556E-01-1.20356E-02-5.29834E-02 4.47928E-02 7.49108E-04-8.47843E-04
 -1       969 1.23869E-01-1.78828E-02-5.24382E-02 5.04302E-02 4.37219E-04-4.42740E-03
 -1       970 1.40289E-01-1.67020E-02-3.73370E-02 4.80970E-02 8.37824E-04-3.05224E-02
 -1       971 1.44010E-01-3.13356E-02-5.85139E-02 4.52509E-02 1.73928E-03-2.18095E-03
 -1       972 1.13338E-01-3.48353E-02-3.40432E-02 1.20989E-02-5.15173E-04-2.51090E-03
 -1       973 1.30234E-01-3.96533E-02-4.00197E-02 1.34607E-02 2.91686E-03-2.95818E-03
 -1       974 1.20668E-01-3.25670E-02-3.79192E-02 3.54184E-02 1.22720E-04-2.22175E-03
 -1       975 1.31563E-01-3.60682E-02-4.26511E-02 2.46887E-02 1.22759E-03-4.79679E-03
 -1       976 9.73326E-02-2.94803E-02-2.88106E-02 1.71714E-02 2.94503E-04-1.03603E-03
 -1       977 1.06095E-01-3.25621E-02-3.11132E-02 1.76591E-02 3.11495E-04-1.00829E-03
 -1       978 1.11608E-01-3.41673E-02-3.48638E-02 2.82123E-02 3.92440E-04-2.48742E-03
 -1       979 7.28986E-02-2.23156E-02-2.13863E-02 1.63742E-02 2.47482E-04 2.38205E-04
 -1       980 8.38165E-02-2.58540E-02-2.47607E-02 1.61732E-02 5.34777E-04-5.33450E-04
 -1       981 8.98842E-02-2.82772E-02-2.61957E-02 3.44646E-02 1.18181E-03-1.10524E-05
 -1       982 9.09265E-02-2.83793E-02-2.67467E-02 2.23431E-02 3.27212E-04-4.29583E-04
 -1       983 9.98233E-02-3.16336E-02-2.97933E-02 3.59338E-02 2.87572E-04-1.08534E-03
 -1       984 5.46893E-02-1.65717E-02-1.60699E-02 1.02843E-02 7.39008E-04-5.40483E-04
 -1       985 6.42409E-02-2.00268E-02-1.89526E-02 1.06369E-02-4.34544E-04-2.24823E-05
 -1       986 7.61358E-02-2.40013E-02-2.24862E-02 2.44009E-02 6.36718E-04 2.89070E-04
 -1       987 6.90078E-02-2.17061E-02-2.10170E-02 2.06639E-02 1.28511E-03 2.18719E-06
 -1       988 5.87291E-02-1.80059E-02-1.72007E-02 1.33656E-02 1.16109E-03 1.76159E-04
 -1       989 6.48457E-02-2.00110E-02-1.88750E-02 1.03086E-02-4.14866E-04 4.89685E-04
 -1       990 5.51005E-02-1.66712E-02-1.66269E-02 1.04937E-02-1.11015E-03 2.88440E-04
 -1       991 7.05157E-02-2.09391E-02-2.21469E-02 2.02008E-02-1.27444E-03-1.52740E-04
 -1       992 5.71902E-02-1.72544E-02-1.83456E-02 1.41074E-02-2.69172E-04-6.63404E-04
 -1       993 8.40035E-02-2.56766E-02-2.56137E-02 1.62980E-02-5.01618E-04 1.03463E-03
 -1       994 7.22581E-02-2.23706E-02-2.15345E-02 1.64867E-02-3.19820E-04 5.27769E-05
 -1       995 7.64815E-02-2.42351E-02-2.23732E-02 2.46486E-02-6.04642E-04-7.86806E-05
 -1       996 1.07062E-01-3.30585E-02-3.12724E-02 1.79508E-02-4.57732E-04 1.48322E-03
 -1       997 9.75252E-02-2.97651E-02-2.88261E-02 1.77526E-02-5.24702E-04 1.93667E-03
 -1       998 9.99157E-02-3.16775E-02-2.96453E-02 3.63556E-02-1.38037E-04 1.45440E-03
 -1       999 9.16607E-02-2.82771E-02-2.73621E-02 2.25476E-02-3.64207E-04 1.30594E-03
 -1      1000 9.11800E-02-2.86738E-02-2.65132E-02 3.47834E-02-9.34724E-04 3.67975E-04
 -1      1001 1.31122E-01-3.92217E-02-3.95099E-02 1.50861E-02-1.97354E-03 2.02170E-03
 -1      1002 1.13255E-01-3.46164E-02-3.43821E-02 1.38781E-02-2.16100E-04 2.24934E-03
 -1      1003 1.10701E-01-3.38515E-02-3.51191E-02 2.93662E-02-7.59474E-04 4.02764E-03
 -1      1004 1.20245E-01-3.08644E-02-4.05896E-02 3.72293E-02-5.35284E-04 4.64601E-03
 -1      1005 1.31177E-01-3.53391E-02-4.12023E-02 2.59868E-02-2.09680E-03 2.82320E-03
 -1      1006 9.91176E-02-3.10715E-02-3.05596E-02 4.91751E-02-5.88333E-04-1.58135E-04
 -1      1007 1.00514E-01-3.22698E-02-2.94782E-02 5.15841E-02-1.61713E-04 9.25443E-04
 -1      1008 9.90800E-02-3.22557E-02-2.90310E-02 5.17226E-02-6.90557E-04-5.84389E-05
 -1      1009 1.00026E-01-3.05032E-02-2.99317E-02 5.04258E-02-2.55046E-04 1.04570E-03
 -1      1010 9.89386E-02-3.06093E-02-2.92833E-02 5.21331E-02-2.07848E-04 1.07201E-03
 -1      1011 9.76468E-02-3.11446E-02-2.89944E-02 4.87111E-02 6.54506E-04 1.91009E-04
 -1      1012 9.94290E-02-3.20820E-02-2.89741E-02 5.18413E-02 1.96207E-04-3.50620E-06
 -1      1013 9.85922E-02-3.16128E-02-2.90996E-02 5.11850E-02 1.60936E-04 6.68268E-04
 -1      1014 9.66042E-02-2.85542E-02-2.97480E-02 5.08806E-02-7.82777E-05 1.33089E-03
 -1      1015 9.97230E-02-3.06046E-02-3.05147E-02 5.09980E-02-3.93115E-04-1.38113E-03
 -1      1016 9.95172E-02-3.15599E-02-2.96317E-02 5.21882E-02-3.55679E-04-4.64439E-04
 -1      1017 9.98504E-02-3.11774E-02-2.97995E-02 5.06402E-02-1.33046E-04-9.03707E-04
 -1      1018 1.08929E-01-2.76755E-02-3.60675E-02 4.57811E-02 2.19872E-04-2.04780E-03
 -1      1019 1.06964E-01-2.09509E-02-3.62731E-02 4.86704E-02-1.36438E-03 2.42995E-03
 -1      1020 1.11845E-01-3.09758E-02-3.57927E-02 3.75726E-02 4.37485E-04-3.27584E-03
 -1      1021 9.84841E-02-2.25959E-02-3.41412E-02 4.92798E-02-6.05348E-04-1.10159E-03
 -1      1022 1.01796E-01-2.88451E-02-3.17064E-02 4.99245E-02 7.12064E-04-2.58994E-03
 -1      1023 1.00497E-01-2.09609E-02-3.53138E-02 4.67803E-02-1.61140E-03-4.89468E-04
 -1      1024 1.01221E-01-2.99371E-02-3.20027E-02 4.83862E-02-1.05207E-05-1.81081E-03
 -1      1025 1.03708E-01-2.97454E-02-3.20520E-02 4.67407E-02 2.89390E-04-1.95402E-03
 -1      1026 1.05153E-01-3.22867E-02-3.19116E-02 3.92781E-02 6.61915E-04-1.47791E-03
 -1      1027 1.06315E-01-3.01084E-02-3.31112E-02 4.04844E-02 6.74768E-04-1.93187E-03
 -1      1028 8.72418E-02-2.26116E-02-2.82845E-02 3.61401E-02-5.70833E-04 2.65685E-04
 -1      1029 9.01647E-02-2.45185E-02-3.06450E-02 4.14162E-02-1.42492E-03-3.23917E-03
 -1      1030 9.38461E-02-2.65443E-02-3.27126E-02 4.73288E-02-7.38815E-04-4.24082E-03
 -1      1031 9.30323E-02-2.91206E-02-2.82809E-02 4.37810E-02-5.81872E-04-1.35983E-03
 -1      1032 8.06052E-02-2.45462E-02-2.42693E-02 2.94542E-02-1.74445E-03-4.99566E-04
 -1      1033 7.83863E-02-2.46459E-02-2.34623E-02 3.02380E-02-9.07858E-04-3.86920E-04
 -1      1034 8.41385E-02-2.23703E-02-2.60818E-02 3.07059E-02-8.77837E-04 1.92258E-03
 -1      1035 9.00656E-02-2.90580E-02-2.64647E-02 3.72816E-02-7.88832E-04-9.62508E-05
 -1      1036 9.07638E-02-2.89156E-02-2.71571E-02 4.19772E-02-4.35431E-04-1.41943E-03
 -1      1037 8.59283E-02-2.73643E-02-2.54476E-02 3.44692E-02-5.69062E-04-7.12122E-04
 -1      1038 9.82379E-02-3.09233E-02-2.97096E-02 4.67804E-02-8.18525E-04-4.72911E-04
 -1      1039 9.14954E-02-2.95566E-02-2.67265E-02 3.97126E-02 1.01520E-03-2.64699E-04
 -1      1040 8.70113E-02-2.75571E-02-2.59304E-02 3.47017E-02 1.28584E-03 2.92626E-04
 -1      1041 9.73372E-02-3.16774E-02-2.85243E-02 4.50090E-02 2.70370E-04-1.71682E-04
 -1      1042 9.40979E-02-3.04553E-02-2.70585E-02 4.47859E-02 1.08549E-03 2.48865E-04
 -1      1043 8.17618E-02-2.47318E-02-2.63638E-02 3.00934E-02 1.68053E-03 1.13665E-03
 -1      1044 8.49334E-02-2.20164E-02-2.72746E-02 3.14798E-02 1.32870E-03-1.27537E-03
 -1      1045 7.93882E-02-2.48459E-02-2.42046E-02 3.02299E-02 8.60079E-04 6.29931E-04
 -1      1046 9.10987E-02-2.44593E-02-3.05866E-02 4.25312E-02 1.04751E-03 1.93842E-03
 -1      1047 8.81330E-02-2.53713E-02-2.90220E-02 3.65558E-02 1.61528E-03 1.69523E-03
 -1      1048 9.34738E-02-2.89241E-02-2.82911E-02 4.47193E-02 8.82563E-04 1.11403E-03
 -1      1049 1.09242E-01-2.77524E-02-3.88552E-02 4.49820E-02 1.06370E-03 3.63095E-03
 -1      1050 1.07664E-01-1.93573E-02-3.71725E-02 4.83303E-02 6.02864E-04-2.84251E-03
 -1      1051 1.11530E-01-3.04543E-02-3.62237E-02 3.82251E-02-8.49490E-04 4.35546E-03
 -1      1052 1.01970E-01-3.14769E-02-3.08679E-02 4.24815E-02 1.04376E-05 4.76500E-04
 -1      1053 1.07217E-01-3.04013E-02-3.40350E-02 4.06609E-02-4.28154E-04 1.68988E-03
 -1      1054 1.01820E-01-2.95399E-02-3.19733E-02 4.77366E-02-1.14308E-04 1.72874E-04
 -1      1055 1.01116E-01-2.76127E-02-3.16098E-02 4.92244E-02 1.30492E-05 1.59024E-03
 -1      1056 9.81185E-02-2.19446E-02-3.23142E-02 4.97361E-02 3.17659E-05-8.12438E-04
 -1      1057 1.03014E-01-2.13597E-02-3.59882E-02 4.73523E-02 7.42799E-04-1.83736E-03
 -1      1058 9.48089E-02-2.69422E-02-3.29848E-02 4.93578E-02-2.10059E-05-5.14058E-03
 -1      1059 9.90737E-02-3.16392E-02-2.94205E-02 4.29022E-02 1.18541E-04-1.12195E-03
 -1      1060 9.96640E-02-3.17690E-02-2.98198E-02 4.76240E-02 2.03979E-04-7.69943E-04
 -1      1061 9.98010E-02-3.14604E-02-2.92622E-02 4.49734E-02-8.41958E-05-6.82474E-05
 -1      1062 9.89001E-02-3.16996E-02-2.94903E-02 4.68921E-02-3.82788E-04 1.98922E-05
 -1      1063 9.62361E-02-3.15017E-02-2.77823E-02 4.14786E-02-6.18560E-04 1.20129E-04
 -1      1064 9.37966E-02-2.55958E-02-3.18370E-02 4.64872E-02 1.18621E-03 2.51480E-03
 -1      1065 9.40685E-02-2.58061E-02-3.02669E-02 4.90502E-02-1.79061E-04 1.95891E-03
 -1      1066 9.98098E-02-3.28335E-02-2.86423E-02 5.34576E-02 3.52530E-05 1.83017E-05
 -1      1067 8.80511E-02-2.69783E-02-2.72947E-02 3.74810E-02-1.68320E-03-8.95983E-04
 -1      1068 1.05444E-01-2.77260E-02-3.42520E-02 4.77318E-02-2.27988E-04 1.85375E-03
 -1      1069 8.86386E-02-2.68666E-02-2.80920E-02 3.61857E-02 1.42182E-03 1.30243E-03
 -1      1070 1.06332E-01-2.73592E-02-3.59582E-02 4.76437E-02 5.22445E-04-2.71456E-03
 -1      1071 1.02158E-01-2.22001E-02-3.84358E-02 4.46962E-02 1.32890E-03-2.04021E-03
 -1      1072 9.73156E-02-3.07418E-02-2.85015E-02 3.96124E-02-6.96393E-04 5.04115E-04
 -1      1073 1.03496E-01-2.31779E-02-4.24704E-02 4.47110E-02-1.30856E-03-2.63109E-03
 -1      1074 9.85686E-02-3.10676E-02-2.92919E-02 3.91371E-02 7.78278E-04-4.38430E-04
 -1      1075 1.15656E-01-2.81899E-02-4.05645E-02 4.62045E-02-2.26340E-04-5.89193E-03
 -1      1076 8.27863E-02-2.40400E-02-2.93556E-02 2.29471E-02-2.15373E-03 2.38721E-04
 -1      1077 7.29181E-02-2.27555E-02-2.26334E-02 2.39298E-02 3.58319E-04 3.77748E-03
 -1      1078 1.34613E-01-2.91117E-02-5.51191E-02 4.71325E-02 6.98629E-04 2.49696E-03
 -1      1079 9.72795E-02-2.97217E-02-3.01231E-02 4.82419E-02-9.62234E-04-1.42344E-03
 -1      1080 9.55307E-02-2.83224E-02-2.92756E-02 4.73027E-02 8.00691E-04 3.52383E-04
 -1      1081 1.00970E-01-3.16279E-02-2.98770E-02 4.97852E-02-1.48080E-05 3.63234E-04
 -1      1082 1.00717E-01-3.15216E-02-2.97336E-02 4.83371E-02 4.60843E-04-1.20966E-03
 -1      1083 1.07548E-01-1.46353E-02-4.91886E-02 4.56117E-02-2.11331E-03-3.42516E-05
 -1      1084 1.06999E-01-3.27146E-02-3.29812E-02 3.15492E-02 9.57094E-04-2.06291E-03
 -1      1085 9.54441E-02-1.85510E-02-3.73937E-02 3.49729E-02 1.11096E-03-4.87965E-03
 -1      1086 8.32577E-02-2.63139E-02-2.46462E-02 2.95016E-02-9.60839E-04-2.17839E-04
 -1      1087 1.04092E-01-1.38117E-02-4.70299E-02 4.61698E-02 1.53553E-03 7.07310E-04
 -1      1088 1.05966E-01-3.24635E-02-3.25991E-02 3.21577E-02-5.20059E-04 2.07377E-03
 -1      1089 9.53977E-02-1.80232E-02-4.00449E-02 3.51530E-02-3.35621E-04 1.53539E-03
 -1      1090 8.40276E-02-2.65511E-02-2.47774E-02 3.01205E-02 1.03295E-03 1.91754E-04
 -1      1091 9.75205E-02-2.80067E-02-2.98667E-02 5.12405E-02 5.09972E-04 1.18876E-03
 -1      1092 9.63793E-02-3.10055E-02-2.86704E-02 4.52618E-02 9.28424E-04-3.26029E-04
 -1      1093 9.98921E-02-2.81599E-02-3.19905E-02 5.12258E-02-1.73969E-04-1.60890E-03
 -1      1094 9.78314E-02-3.15555E-02-2.91800E-02 4.69027E-02-8.04687E-04-9.76979E-05
 -1      1095 6.76454E-02-2.14101E-02-1.99037E-02 1.94047E-02 1.37742E-04 4.23871E-04
 -1      1096 9.11604E-02-1.59752E-02-3.67170E-02 2.29059E-02-1.72001E-03 6.16062E-03
 -1      1097 1.21051E-01-1.12658E-02-5.47820E-02 4.76879E-02 2.42430E-04-7.13676E-03
 -1      1098 1.20429E-01-3.57697E-02-3.71327E-02 2.49825E-02-6.76763E-04 2.69552E-03
 -1      1099 6.89073E-02-2.20293E-02-2.03186E-02 1.99873E-02-7.29887E-04-3.69554E-04
 -1      1100 9.09597E-02-1.60146E-02-3.60068E-02 2.37919E-02 1.24413E-03-8.24803E-03
 -1      1101 1.18039E-01-9.14834E-03-5.45740E-02 4.84655E-02-1.94010E-03 5.01629E-03
 -1      1102 1.20463E-01-3.65353E-02-3.78679E-02 2.34285E-02 6.49315E-04-3.92629E-03
 -1      1103 6.89014E-02-1.74441E-02-2.52974E-02 5.49630E-03 2.06352E-03-2.17968E-03
 -1      1104 6.78059E-02-1.85299E-02-2.46888E-02 5.32525E-03-1.89087E-03-6.26971E-04
 -1      1105 1.69383E-01-3.54747E-02-6.89373E-02 5.09954E-02-5.21659E-04 3.88135E-04
 -1      1106 1.69657E-01-3.74189E-02-7.14687E-02 4.68541E-02 1.53765E-03 7.67504E-03
 -1      1107 2.28015E-01-3.75100E-02-5.59414E-02 6.24612E-02-1.07007E-02-4.11500E-02
 -1      1108 1.58443E-01-1.08821E-02-5.71062E-02 4.25374E-02 4.59097E-04-2.79299E-02
 -1      1109 1.45274E-01-4.70682E-02-5.19550E-02 1.73315E-02 6.35556E-03 1.03723E-02
 -1      1110 7.83971E-02-1.04891E-02-2.27617E-02 6.22419E-03-4.92633E-04-1.52716E-02
 -1      1111 6.11985E-02-9.51828E-03-1.91614E-02-6.28056E-03 2.71809E-03-1.01038E-02
 -1      1112 5.04660E-02-1.57039E-02-1.68875E-02 6.58359E-03 1.28484E-04 3.56722E-04
 -1      1113 7.58284E-02-9.30023E-03-2.11781E-02 6.74246E-03-4.78249E-04 1.55273E-02
 -1      1114 6.10263E-02-1.05992E-02-1.74061E-02-6.45384E-03-2.97148E-03 9.85914E-03
 -1      1115 4.90893E-02-1.67841E-02-1.46408E-02 6.13958E-03 1.34457E-03-5.48750E-04
 -1      1116 2.24933E-01-3.41257E-02-5.94276E-02 6.34786E-02 9.85674E-03 4.07431E-02
 -1      1117 1.63571E-01-1.26621E-02-5.75365E-02 4.57319E-02-2.33720E-03 3.17997E-02
 -1      1118 1.46586E-01-4.45542E-02-5.31308E-02 1.98293E-02-3.88350E-03-1.08701E-02
 -1      1119 1.34128E-01-4.56752E-03-4.50902E-02 4.91644E-02-5.21821E-04-3.07936E-02
 -1      1120 1.28101E-01-5.51684E-03-3.34499E-02 4.28790E-02 9.85809E-04-3.81357E-02
 -1      1121 1.41560E-01-1.12846E-02-4.68144E-02 4.83684E-02-5.59202E-05-2.79985E-02
 -1      1122 1.27287E-01-1.93181E-02-5.56611E-02 4.91499E-02 1.87713E-03-2.46775E-03
 -1      1123 1.46767E-01-3.41532E-02-6.13707E-02 4.32965E-02-1.00099E-03 1.02418E-02
 -1      1124 1.17189E-01-8.48983E-03-3.45392E-02 4.26941E-02 2.42682E-03-2.80022E-02
 -1      1125 1.06754E-01-6.80144E-03-3.63820E-02 3.79374E-02 2.89280E-03-2.04301E-02
 -1      1126 1.11105E-01-1.11478E-02-4.98980E-02 4.60392E-02 8.02017E-04-3.63697E-03
 -1      1127 1.00901E-01-1.04082E-02-2.59533E-02 3.39961E-02-5.91138E-04-2.66273E-02
 -1      1128 9.79268E-02-1.02705E-02-2.99790E-02 2.87299E-02-3.85975E-04-2.29115E-02
 -1      1129 1.03622E-01-1.12866E-02-2.96094E-02 3.74949E-02 1.11858E-03-2.18188E-02
 -1      1130 9.88940E-02-2.05720E-02-3.62517E-02 4.05950E-02 1.16559E-03-4.83297E-03
 -1      1131 1.03670E-01-1.82449E-02-4.27572E-02 4.40676E-02 7.02694E-05 4.07888E-04
 -1      1132 9.83787E-02-8.31841E-03-2.41701E-02 2.12342E-02 1.28592E-03-2.94611E-02
 -1      1133 8.92933E-02-8.61054E-03-2.82010E-02 1.41558E-02 1.96683E-03-1.90365E-02
 -1      1134 9.14750E-02-1.61731E-02-3.86227E-02 2.96998E-02 7.56792E-04-5.08140E-03
 -1      1135 7.80356E-02-2.04517E-02-2.62007E-02 2.44390E-02-6.50776E-04 8.90027E-04
 -1      1136 8.03512E-02-1.48700E-02-2.56766E-02 1.35992E-02 3.44121E-04-8.77368E-03
 -1      1137 6.81820E-02-2.03901E-02-2.11948E-02 1.51797E-02 1.89273E-03 1.77866E-03
 -1      1138 9.99327E-02-8.96396E-03-2.28038E-02 2.13583E-02-9.58878E-04 2.94974E-02
 -1      1139 8.74492E-02-7.37332E-03-2.95241E-02 1.22493E-02-1.63203E-03 1.74396E-02
 -1      1140 8.66355E-02-2.04267E-02-3.31748E-02 2.10410E-02-1.31327E-03 2.54420E-03
 -1      1141 8.09842E-02-1.25429E-02-2.45646E-02 1.31673E-02-1.18998E-03 1.42880E-02
 -1      1142 7.47220E-02-2.07911E-02-2.75245E-02 1.57637E-02-2.75367E-03-2.76928E-03
 -1      1143 1.01975E-01-1.05392E-02-2.57544E-02 3.41933E-02 9.74218E-04 2.55566E-02
 -1      1144 9.93062E-02-1.01237E-02-2.97002E-02 2.91365E-02 8.55756E-04 2.21756E-02
 -1      1145 9.09861E-02-1.54580E-02-3.83685E-02 2.95189E-02-1.23736E-03 3.13594E-03
 -1      1146 1.16781E-01-6.05923E-03-3.85740E-02 4.12836E-02-2.68214E-03 2.66144E-02
 -1      1147 1.07413E-01-7.20724E-03-3.65535E-02 3.85686E-02-3.28846E-03 2.13821E-02
 -1      1148 1.05735E-01-1.92296E-02-4.36933E-02 4.52202E-02-7.33537E-04-6.90796E-04
 -1      1149 1.04998E-01-1.19844E-02-2.98338E-02 3.77792E-02-1.32254E-03 2.06344E-02
 -1      1150 9.95551E-02-2.03647E-02-3.98216E-02 4.04148E-02-6.36941E-04 8.33064E-04
 -1      1151 1.39114E-01-6.75593E-03-4.19670E-02 4.96080E-02 1.59659E-03 3.40965E-02
 -1      1152 1.26258E-01-2.31681E-03-4.41827E-02 4.06109E-02-1.80713E-03 2.98710E-02
 -1      1153 1.13245E-01-1.20569E-02-5.37610E-02 4.43357E-02-1.53736E-03 3.66935E-04
 -1      1154 1.38957E-01-1.47330E-02-4.76918E-02 4.79201E-02-7.64970E-04 1.78955E-02
 -1      1155 1.14200E-01-1.76108E-02-4.41412E-02 4.79783E-02-2.34793E-03 3.40981E-04
 -1      1156 1.29324E-01-3.48380E-02-4.51266E-02 4.72831E-02-3.60633E-04-5.15412E-03
 -1      1157 1.14551E-01-3.46317E-02-3.44260E-02 1.31922E-02 1.03237E-04 1.82082E-03
 -1      1158 1.28753E-01-3.90907E-02-3.82912E-02 1.43950E-02-8.11040E-04 5.11890E-04
 -1      1159 1.20218E-01-3.27989E-02-3.92359E-02 3.55813E-02-3.80552E-04 3.12128E-03
 -1      1160 1.34148E-01-3.65523E-02-4.19348E-02 2.52139E-02-1.61134E-03 3.24429E-03
 -1      1161 9.71059E-02-2.94553E-02-2.89242E-02 1.75243E-02-4.56960E-04 1.31059E-03
 -1      1162 1.06811E-01-3.27987E-02-3.14472E-02 1.79348E-02-6.65792E-04 1.03529E-03
 -1      1163 1.11599E-01-3.38808E-02-3.52301E-02 2.81421E-02-8.53073E-04 2.65158E-03
 -1      1164 7.23765E-02-2.23734E-02-2.14002E-02 1.66053E-02-3.79044E-04-3.69702E-05
 -1      1165 8.29576E-02-2.57273E-02-2.47364E-02 1.66258E-02 7.52690E-05 9.07110E-05
 -1      1166 9.04459E-02-2.82293E-02-2.66760E-02 3.44425E-02-1.16581E-03-6.98774E-05
 -1      1167 9.18590E-02-2.83209E-02-2.69588E-02 2.19667E-02-3.07483E-04 4.22512E-04
 -1      1168 9.94116E-02-3.14943E-02-2.99225E-02 3.59570E-02-1.86319E-04 1.41586E-03
 -1      1169 5.56113E-02-1.69400E-02-1.63787E-02 1.08708E-02-7.82962E-04 3.89713E-04
 -1      1170 6.56354E-02-2.04936E-02-1.90463E-02 1.07142E-02-2.11165E-04 2.17432E-04
 -1      1171 7.63958E-02-2.42939E-02-2.24197E-02 2.50572E-02-6.83143E-04-2.53571E-04
 -1      1172 5.97237E-02-1.80345E-02-1.76391E-02 1.39610E-02-1.11335E-03-2.05112E-04
 -1      1173 6.98142E-02-2.20060E-02-2.19962E-02 2.20294E-02-1.13869E-03-1.08286E-03
 -1      1174 5.51949E-02-1.67815E-02-1.62272E-02 1.03991E-02 6.31610E-04-6.40128E-04
 -1      1175 6.41377E-02-1.97285E-02-1.87431E-02 1.07142E-02-2.65042E-04-1.77810E-04
 -1      1176 5.84849E-02-1.76564E-02-1.81700E-02 1.51196E-02 4.65413E-06 7.95997E-04
 -1      1177 7.03162E-02-2.18869E-02-2.08755E-02 2.22268E-02-3.51078E-04 1.10001E-03
 -1      1178 7.32312E-02-2.24161E-02-2.15549E-02 1.69738E-02 1.50204E-04-6.66790E-05
 -1      1179 8.29665E-02-2.58851E-02-2.46905E-02 1.66703E-02-4.53633E-05-3.07706E-04
 -1      1180 7.61353E-02-2.40504E-02-2.23562E-02 2.50357E-02 7.04872E-04 6.82820E-04
 -1      1181 9.73068E-02-2.95711E-02-2.87903E-02 1.74365E-02 2.83999E-04-1.27376E-03
 -1      1182 1.06381E-01-3.31412E-02-3.10726E-02 1.75658E-02 7.26079E-04-1.04329E-03
 -1      1183 9.24629E-02-2.83734E-02-2.72114E-02 2.22494E-02 2.93737E-04-2.33820E-04
 -1      1184 1.00796E-01-3.13908E-02-3.12063E-02 3.53688E-02 6.85108E-04-1.37882E-03
 -1      1185 9.09417E-02-2.88433E-02-2.69750E-02 3.46101E-02 8.39302E-04 2.85843E-05
 -1      1186 1.13521E-01-3.50007E-02-3.40727E-02 1.21614E-02-4.31921E-04-2.38713E-03
 -1      1187 1.30732E-01-3.96509E-02-4.02039E-02 1.32730E-02 3.16193E-03-3.15251E-03
 -1      1188 1.11560E-01-3.44094E-02-3.49949E-02 2.78106E-02 7.92478E-04-2.95883E-03
 -1      1189 1.20917E-01-3.25491E-02-3.81358E-02 3.53312E-02 9.19635E-05-2.63509E-03
 -1      1190 1.31485E-01-3.61770E-02-4.27900E-02 2.44245E-02 1.29138E-03-4.78505E-03
 -1      1191 9.85996E-02-3.17272E-02-2.90281E-02 5.16967E-02-7.70292E-04-3.48927E-04
 -1      1192 9.81623E-02-2.92337E-02-3.03704E-02 5.03713E-02-5.47439E-04-1.29661E-03
 -1      1193 9.92538E-02-3.08677E-02-2.95267E-02 5.22663E-02-3.08501E-04-6.73904E-04
 -1      1194 9.82936E-02-3.20848E-02-2.86188E-02 5.07300E-02-3.53918E-04 4.18926E-04
 -1      1195 9.77098E-02-3.04509E-02-3.00300E-02 4.72398E-02-9.79886E-04-3.76919E-04
 -1      1196 9.80577E-02-3.10614E-02-2.87930E-02 5.08789E-02 6.64585E-04 1.24334E-06
 -1      1197 9.63577E-02-2.80063E-02-2.95760E-02 4.97621E-02 5.59753E-04 3.51080E-04
 -1      1198 9.89741E-02-3.06112E-02-2.91870E-02 5.22774E-02 1.78289E-04 4.81312E-04
 -1      1199 9.80634E-02-3.14586E-02-2.86991E-02 4.98258E-02 5.79908E-04-6.07312E-04
 -1      1200 9.61190E-02-3.00594E-02-2.90297E-02 4.60566E-02 8.80477E-04 1.20912E-04
 -1      1201 1.00061E-01-3.04824E-02-3.00178E-02 5.04450E-02-2.83620E-05 7.76068E-04
 -1      1202 1.00542E-01-3.23979E-02-2.92496E-02 5.16386E-02-1.58313E-04 5.93555E-04
 -1      1203 9.89379E-02-3.16892E-02-2.92045E-02 4.89110E-02-3.13837E-04 2.36072E-04
 -1      1204 1.00482E-01-3.21970E-02-2.92528E-02 5.11595E-02 2.42910E-04-8.99156E-04
 -1      1205 9.85715E-02-3.13959E-02-2.90584E-02 4.69765E-02 7.39845E-04-9.03564E-04
 -1      1206 1.00440E-01-3.00108E-02-3.07653E-02 4.94396E-02-1.04858E-04-1.22941E-03
 -1      1207 8.44661E-02-2.22084E-02-2.66533E-02 2.98458E-02-1.47658E-03 2.32114E-03
 -1      1208 8.07619E-02-2.52612E-02-2.56802E-02 3.00833E-02-1.79956E-03-1.45693E-03
 -1      1209 7.80574E-02-2.46918E-02-2.38147E-02 3.00850E-02-1.36880E-03-2.77038E-04
 -1      1210 8.73316E-02-2.29519E-02-2.94617E-02 3.62110E-02-1.20795E-03-3.83887E-04
 -1      1211 9.19391E-02-2.45935E-02-3.05093E-02 4.17359E-02-1.01563E-03-1.10329E-03
 -1      1212 9.24730E-02-2.77907E-02-2.93841E-02 4.29066E-02-1.26691E-03-1.35451E-03
 -1      1213 9.27376E-02-2.91012E-02-2.80863E-02 4.26545E-02-8.64592E-04-2.45155E-04
 -1      1214 9.05413E-02-2.94589E-02-2.63665E-02 3.84455E-02-1.08987E-03-1.06936E-04
 -1      1215 8.57672E-02-2.74490E-02-2.55752E-02 3.34778E-02-1.40116E-03-2.58260E-04
 -1      1216 1.09717E-01-2.80862E-02-3.81128E-02 4.53691E-02 1.26230E-03 2.87977E-03
 -1      1217 1.07315E-01-1.95695E-02-3.67734E-02 4.88294E-02 6.63121E-04-3.35751E-03
 -1      1218 1.11299E-01-3.08393E-02-3.56980E-02 3.77572E-02-6.93842E-04 3.57334E-03
 -1      1219 1.07346E-01-3.05672E-02-3.39215E-02 4.06992E-02-4.58364E-04 1.98728E-03
 -1      1220 1.02539E-01-3.13948E-02-3.06343E-02 4.22572E-02 1.64804E-04 6.49887E-04
 -1      1221 1.02264E-01-2.96201E-02-3.17238E-02 4.80468E-02-6.15534E-05 4.61334E-04
 -1      1222 1.00428E-01-2.73616E-02-3.16753E-02 4.96607E-02 3.54120E-04 1.64038E-03
 -1      1223 9.67719E-02-2.13444E-02-3.16416E-02 4.90707E-02 3.58613E-04-1.40032E-03
 -1      1224 1.01146E-01-2.06794E-02-3.55096E-02 4.75565E-02 1.47462E-03-1.07937E-03
 -1      1225 8.17966E-02-2.48861E-02-2.42931E-02 2.95068E-02 1.19042E-03 1.96982E-03
 -1      1226 7.77751E-02-2.46017E-02-2.37721E-02 2.87959E-02 3.68773E-04 1.54089E-03
 -1      1227 8.56445E-02-2.22454E-02-2.88456E-02 2.97086E-02 1.34412E-03-1.35294E-03
 -1      1228 9.00116E-02-2.36421E-02-2.94890E-02 3.55616E-02 1.91381E-03-1.18238E-03
 -1      1229 9.25304E-02-2.41603E-02-2.88786E-02 4.09964E-02 1.08900E-03-1.37812E-03
 -1      1230 9.04039E-02-2.70189E-02-2.78534E-02 4.22841E-02 9.12849E-04 8.68118E-04
 -1      1231 9.06353E-02-2.90698E-02-2.75671E-02 4.19213E-02 9.90849E-04 6.93345E-04
 -1      1232 8.95007E-02-2.88998E-02-2.66973E-02 3.80546E-02 8.34005E-04-6.66146E-05
 -1      1233 8.56077E-02-2.72273E-02-2.59406E-02 3.28470E-02 1.50917E-03 8.17233E-04
 -1      1234 1.09699E-01-2.72439E-02-3.73717E-02 4.59804E-02 1.04905E-03-2.59319E-03
 -1      1235 1.07129E-01-1.96952E-02-3.81546E-02 4.87272E-02-4.20639E-04 1.58717E-03
 -1      1236 1.12652E-01-3.07860E-02-3.71617E-02 3.77436E-02 1.32729E-03-3.91923E-03
 -1      1237 1.07327E-01-3.05386E-02-3.44199E-02 4.07920E-02 9.38399E-04-2.55699E-03
 -1      1238 1.02708E-01-3.12815E-02-3.13837E-02 4.11827E-02 1.93866E-04-2.02523E-03
 -1      1239 1.01698E-01-2.92994E-02-3.18118E-02 4.77988E-02 1.26565E-04-1.63467E-03
 -1      1240 1.02928E-01-2.72155E-02-3.45037E-02 4.87443E-02-3.53713E-05-1.91988E-03
 -1      1241 9.78094E-02-2.19938E-02-3.44261E-02 4.97498E-02 6.14374E-05-1.40807E-03
 -1      1242 1.02064E-01-2.15854E-02-3.70829E-02 4.67149E-02-8.70328E-04-4.85771E-04
 -1      1243 9.40205E-02-2.51648E-02-2.99027E-02 4.53603E-02 1.32690E-03-3.05080E-04
 -1      1244 9.51384E-02-2.52797E-02-3.00029E-02 4.73364E-02 9.89915E-04 5.19514E-04
 -1      1245 9.89797E-02-3.11830E-02-2.90773E-02 4.46453E-02 9.13818E-05 2.05185E-04
 -1      1246 9.73824E-02-3.15292E-02-2.84830E-02 4.29482E-02-7.20202E-04 1.61821E-04
 -1      1247 9.25622E-02-2.58812E-02-3.33776E-02 4.65849E-02-9.78331E-04-5.18339E-03
 -1      1248 9.34510E-02-2.57682E-02-3.43581E-02 4.97401E-02 5.67637E-04-5.48616E-03
 -1      1249 9.92576E-02-3.14213E-02-2.95059E-02 4.36332E-02 6.18428E-04-8.54926E-04
 -1      1250 9.74851E-02-3.12798E-02-2.89271E-02 4.17686E-02 8.61939E-04-4.56321E-04
 -1      1251 1.17511E-01-3.39687E-02-3.38124E-02 5.03687E-02 4.70199E-05 9.78230E-05
 -1      1252 1.21066E-01-3.39699E-02-3.48711E-02 4.11454E-02 9.02178E-04-1.19512E-04
 -1      1253 1.21134E-01-3.15014E-02-3.32285E-02 4.87701E-02-1.71959E-04 2.57536E-03
 -1      1254 1.04385E-01-2.85934E-02-2.67881E-02 4.27026E-02 1.28175E-03-4.45429E-03
 -1      1255 1.19004E-01-3.27272E-02-3.30068E-02 4.58782E-02-3.41548E-05-1.03019E-03
 -1      1256 1.04185E-01-2.99521E-02-2.83592E-02 4.20705E-02-2.21053E-03 4.58601E-03
 -1      1257 1.20615E-01-3.13997E-02-3.29090E-02 4.90404E-02-4.01626E-05-2.55770E-03
 -1      1258 1.08706E-01-3.17952E-02-3.13847E-02 4.31606E-02-1.81942E-03 2.87888E-03
 -1      1259 9.86616E-02-3.01883E-02-2.54253E-02 3.82102E-02 1.65984E-03-3.59201E-03
 -1      1260 1.01183E-01-3.01587E-02-2.89138E-02 3.80157E-02 2.59531E-03-4.11889E-03
 -1      1261 1.08782E-01-2.40131E-02-2.61096E-02 4.89754E-02-6.04777E-04 2.92335E-03
 -1      1262 1.14533E-01-3.24693E-02-3.46950E-02 5.00311E-02 3.91325E-04-4.12325E-04
 -1      1263 1.14247E-01-3.16952E-02-3.46255E-02 5.02336E-02-2.15211E-04 3.02305E-04
 -1      1264 1.14813E-01-3.48943E-02-3.21557E-02 4.02777E-02 2.10905E-04-4.05168E-04
 -1      1265 1.02611E-01-2.43142E-02-2.37536E-02 4.53584E-02-5.37903E-04 1.73020E-03
 -1      1266 1.13693E-01-3.40124E-02-3.21031E-02 4.02466E-02-1.61493E-04 2.67484E-04
 -1      1267 8.98010E-02-2.62197E-02-2.43635E-02 3.22933E-02-3.37175E-03 7.64062E-03
 -1      1268 1.28663E-01-3.02894E-02-3.60593E-02 4.67267E-02-8.11088E-04 7.25814E-03
 -1      1269 8.07584E-02-2.49567E-02-2.11529E-02 2.67131E-02 3.14796E-03-8.46412E-03
 -1      1270 1.25744E-01-3.30679E-02-2.71127E-02 4.91585E-02-1.70294E-04 8.22497E-04
 -1      1271 1.32053E-01-3.08511E-02-3.40488E-02 4.75511E-02 7.90174E-04-1.01888E-02
 -1      1272 1.30632E-01-3.20661E-02-3.39512E-02 4.69152E-02 3.18207E-04-7.88694E-03
 -1      1273 8.33302E-02-2.43830E-02-2.12986E-02 2.89979E-02-2.93963E-03 8.86362E-03
 -1      1274 1.22231E-01-2.97060E-02-2.48005E-02 5.05581E-02 8.02564E-05 2.06339E-05
 -1      1275 1.02734E-01-2.17711E-02-2.46476E-02 4.59322E-02 8.93712E-04-4.82867E-03
 -1      1276 1.09709E-01-3.28527E-02-3.27717E-02 3.77611E-02-1.72891E-03 2.54104E-03
 -1      1277 1.00391E-01-2.04839E-02-2.32907E-02 4.52335E-02 1.37105E-03-6.44510E-03
 -1      1278 8.67553E-02-2.76110E-02-2.03233E-02 3.17158E-02-2.81646E-04 9.40030E-04
 -1      1279 1.05892E-01-2.19662E-02-3.03625E-02 4.59899E-02-1.88919E-03 9.10136E-03
 -1      1280 1.08163E-01-3.21873E-02-3.24054E-02 3.84411E-02 1.94728E-03-2.86124E-03
 -1      1281 8.05875E-02-2.23004E-02-1.55305E-02 2.91323E-02 2.20506E-03-9.18584E-03
 -1      1282 1.28358E-01-2.81742E-02-3.25597E-02 4.99124E-02-9.96113E-04 1.07084E-02
 -1      1283 1.05721E-01-2.11219E-02-3.02919E-02 4.58714E-02-2.00124E-03 1.00524E-02
 -1      1284 9.24717E-02-2.41943E-02-1.86668E-02 3.70543E-02-3.18679E-04 7.90473E-04
 -1      1285 6.93706E-02-1.98303E-02-1.74720E-02 1.78647E-02 2.95590E-03-1.15449E-02
 -1      1286 1.11590E-01-3.32846E-02-3.32448E-02 3.60254E-02-1.74821E-03 2.65460E-03
 -1      1287 1.12189E-01-2.80604E-02-3.47203E-02 4.95412E-02 7.94905E-04-1.32173E-03
 -1      1288 1.11556E-01-2.65477E-02-3.43570E-02 4.82274E-02 1.72788E-03-3.06395E-03
 -1      1289 1.56434E-01-3.87358E-02-3.85231E-02 4.77639E-02-2.82327E-04 2.10916E-02
 -1      1290 9.20900E-02-2.88860E-02-2.39870E-02 3.17487E-02-1.32814E-04 3.39587E-04
 -1      1291 9.79423E-02-2.37879E-02-2.59319E-02 3.94826E-02 2.37707E-03-9.66891E-03
 -1      1292 8.91200E-02-2.09170E-02-1.80545E-02 3.53265E-02-1.53809E-03 7.50230E-03
 -1      1293 6.61908E-02-1.89347E-02-1.47329E-02 1.61306E-02-2.48804E-03 1.31844E-02
 -1      1294 1.49999E-01-3.42281E-02-3.77150E-02 4.91796E-02-5.32248E-04 2.05524E-02
 -1      1295 1.23109E-01-3.06553E-02-3.30875E-02 4.68359E-02-4.47819E-04 4.06267E-03
 -1      1296 1.07875E-01-1.57160E-02-1.98202E-02 4.81650E-02-1.61118E-04 1.40965E-02
 -1      1297 1.05965E-01-1.71236E-02-1.92112E-02 4.94558E-02-2.40318E-04 1.00321E-02
 -1      1298 1.12379E-01-2.53959E-02-3.15201E-02 4.76445E-02-1.26220E-03 5.37200E-03
 -1      1299 9.42892E-02-1.11080E-02-1.75677E-02 4.65906E-02 1.15733E-04 1.36692E-02
 -1      1300 1.15217E-01-2.31721E-02-3.36054E-02 4.74915E-02-1.01173E-03 8.76436E-03
 -1      1301 1.10177E-01-2.60742E-02-2.81981E-02 4.68403E-02 4.86896E-04-3.52979E-03
 -1      1302 1.11239E-01-2.27315E-02-2.75985E-02 4.79061E-02-1.24042E-04-6.80263E-03
 -1      1303 1.22741E-01-3.23271E-02-3.21115E-02 4.55831E-02 7.03403E-05-3.11945E-03
 -1      1304 1.14981E-01-3.04740E-02-3.31536E-02 4.64631E-02 9.09091E-04-2.32452E-03
 -1      1305 1.19107E-01-2.82494E-02-3.42924E-02 4.74739E-02 5.72341E-04-4.75288E-03
 -1      1306 1.06595E-01-2.36078E-02-2.91833E-02 4.75432E-02 1.25639E-03-4.61071E-03
 -1      1307 1.14989E-01-3.05135E-02-3.45589E-02 4.32250E-02 3.63286E-04 1.02094E-03
 -1      1308 1.12890E-01-3.14501E-02-3.32091E-02 4.44850E-02-3.20575E-05 3.58266E-04
 -1      1309 1.14400E-01-3.18060E-02-3.34499E-02 4.32887E-02 9.44141E-04-9.09667E-04
 -1      1310 1.06036E-01-3.15325E-02-3.20692E-02 4.08950E-02 8.55465E-04-2.19410E-03
 -1      1311 1.16695E-01-3.21564E-02-3.38774E-02 4.04039E-02 1.00607E-03-2.27994E-04
 -1      1312 1.03612E-01-1.37421E-02-1.95523E-02 4.73054E-02 6.82283E-04-1.92104E-02
 -1      1313 9.12905E-02-9.91511E-03-1.53378E-02 4.33191E-02 8.27607E-04-1.54668E-02
 -1      1314 9.93181E-02-1.43424E-02-2.37297E-02 4.72297E-02 6.47466E-04-1.44659E-02
 -1      1315 1.12612E-01-3.17615E-02-3.20577E-02 4.65613E-02-5.76861E-04 1.29848E-03
 -1      1316 1.13196E-01-3.16436E-02-3.21242E-02 4.46372E-02-5.52119E-04 6.16303E-05
 -1      1317 1.17115E-01-3.29751E-02-3.27152E-02 4.80978E-02-2.45391E-05-9.19647E-04
 -1      1318 1.16277E-01-3.35107E-02-3.29532E-02 5.03114E-02 1.55500E-04-1.63362E-04
 -1      1319 1.15195E-01-3.23721E-02-3.33440E-02 4.83677E-02 2.65530E-04-2.03626E-03
 -1      1320 1.12279E-01-3.14822E-02-3.32167E-02 4.71843E-02-9.26175E-04 1.05322E-03
 -1      1321 1.02422E-01-1.58757E-02-2.11431E-02 4.75216E-02 3.35146E-05-1.42794E-02
 -1      1322 1.05926E-01-1.67873E-02-1.97357E-02 4.93425E-02-3.72894E-04-9.72738E-03
 -1      1323 1.06500E-01-1.47004E-02-1.85425E-02 4.80019E-02 7.33754E-04-1.40885E-02
 -1      1324 1.23841E-01-3.07691E-02-3.23077E-02 4.72512E-02 2.55046E-04-5.33505E-03
 -1      1325 1.03600E-01-1.18012E-02-2.07516E-02 4.72191E-02 1.35644E-03-1.87938E-02
 -1      1326 1.20490E-01-3.75098E-02-3.24795E-02 2.15280E-02 3.79861E-04 3.35133E-05
 -1      1327 1.17758E-01-3.30288E-02-3.26318E-02 4.43930E-02-7.45663E-06 8.44805E-04
 -1      1328 1.26516E-01-3.67615E-02-3.22461E-02 2.82042E-02-2.71185E-05 8.82101E-04
 -1      1329 1.29878E-01-3.79585E-02-2.81690E-02 2.74248E-02-4.47735E-04 9.66718E-06
 -1      1330 1.20327E-01-3.13290E-02-2.82210E-02 4.91773E-02 1.86228E-05 1.91071E-03
 -1      1331 1.19065E-01-3.36178E-02-2.94376E-02 4.34765E-02-3.33778E-04-2.34400E-04
 -1      1332 1.17527E-01-3.34202E-02-3.27522E-02 4.43202E-02 1.96338E-06-9.95483E-04
 -1      1333 1.15794E-01-3.28242E-02-3.33573E-02 4.62071E-02 2.28324E-04 7.35301E-05
 -1      1334 1.11043E-01-3.34650E-02-3.13088E-02 4.18648E-02-1.07941E-03 1.03245E-03
 -1      1335 1.19530E-01-3.23329E-02-3.55954E-02 3.71665E-02 3.42261E-04 1.15219E-03
 -1      1336 1.07124E-01-3.18450E-02-3.22515E-02 3.41568E-02 1.30555E-03-2.42995E-03
 -1      1337 9.96864E-02-1.59217E-02-1.86512E-02 4.54751E-02-4.08115E-04 7.23337E-03
 -1      1338 8.95580E-02-1.16685E-02-1.62979E-02 4.23416E-02-8.64010E-04 1.01761E-02
 -1      1339 9.47738E-02-6.50355E-03-2.96833E-02 4.59283E-02-2.07073E-04-1.47242E-02
 -1      1340 1.17521E-01-2.02948E-02-3.77556E-02 4.66221E-02 2.47084E-03-6.98302E-03
 -1      1341 1.08939E-01-2.17470E-02-3.64241E-02 4.79463E-02 1.00351E-03-2.19067E-03
 -1      1342 1.19408E-01-3.39646E-02-3.34616E-02 2.80009E-02-7.02837E-04-3.63209E-05
 -1      1343 1.24872E-01-3.60896E-02-3.27350E-02 2.80585E-02-3.24364E-04-9.90746E-04
 -1      1344 1.12550E-01-3.44181E-02-3.20214E-02 2.16615E-02-4.78651E-04 7.71103E-04
 -1      1345 1.19111E-01-3.69990E-02-3.25866E-02 2.14779E-02-4.24888E-04-3.23874E-04
 -1      1346 1.34577E-01-4.00278E-02-2.94198E-02 2.70288E-02-2.83909E-04-1.43070E-03
 -1      1347 1.21774E-01-3.26647E-02-2.90494E-02 4.88718E-02-4.79764E-05-1.28388E-03
 -1      1348 1.29032E-01-3.71191E-02-3.29367E-02 2.92306E-02-5.49448E-04-2.78367E-03
 -1      1349 1.36310E-01-3.99821E-02-3.27795E-02 2.46631E-02-3.77733E-04-6.16270E-03
 -1      1350 1.25626E-01-3.24458E-02-2.67304E-02 4.77808E-02 1.35183E-04-4.56994E-03
 -1      1351 1.04377E-01-1.28607E-02-2.08580E-02 4.73099E-02-1.07626E-03 2.01283E-02
 -1      1352 9.20571E-02-1.01387E-02-1.93416E-02 4.40291E-02-4.93191E-04 1.80143E-02
 -1      1353 1.10778E-01-3.36950E-02-3.26930E-02 1.91992E-02-1.03267E-03 2.34212E-03
 -1      1354 1.13606E-01-3.40656E-02-3.21584E-02 3.77197E-02-1.23385E-03 1.13888E-03
 -1      1355 1.15594E-01-3.21033E-02-3.37500E-02 4.23913E-02-7.96490E-04 2.85238E-04
 -1      1356 1.03284E-01-1.44104E-02-1.37664E-02 4.97455E-02 6.83313E-04 7.77845E-03
 -1      1357 1.24008E-01-3.14296E-02-2.71437E-02 4.84540E-02-1.12530E-04 4.64726E-03
 -1      1358 7.34527E-02-1.12878E-02-8.69903E-03 2.89184E-02 1.23043E-03-1.01396E-02
 -1      1359 7.13227E-02-1.15125E-02-8.62633E-03 2.70533E-02 1.62335E-03-1.49841E-02
 -1      1360 6.73742E-02-1.22344E-02-8.50168E-03 2.29829E-02 1.12093E-03-1.01656E-02
 -1      1361 1.16558E-01-3.28899E-02-3.28127E-02 4.32853E-02-3.46808E-04-2.97631E-04
 -1      1362 1.20549E-01-3.79082E-02-3.23474E-02 2.14729E-02-3.41020E-04 2.82206E-04
 -1      1363 1.25744E-01-3.77936E-02-3.24698E-02 2.62784E-02-1.38819E-04-5.15817E-04
 -1      1364 1.20062E-01-3.19027E-02-2.88402E-02 4.68736E-02-8.57712E-05-1.31951E-03
 -1      1365 1.30411E-01-3.87656E-02-2.83180E-02 2.70516E-02 2.88262E-04-5.11515E-04
 -1      1366 6.07303E-02-1.76507E-02-1.84537E-02 1.13477E-02 3.43262E-04-6.45046E-03
 -1      1367 5.12741E-02-1.54694E-02-1.46705E-02 3.89512E-03-3.41391E-04-6.60204E-03
 -1      1368 6.46673E-02-1.33251E-02-1.69366E-02 9.58084E-03 2.00950E-03-1.17638E-02
 -1      1369 5.43987E-02-1.02136E-02-1.36506E-02 1.22553E-03 1.82257E-03-1.10514E-02
 -1      1370 3.79151E-02-9.04856E-03-4.10719E-03-3.05292E-04 1.00296E-03-1.53991E-02
 -1      1371 1.01972E-01-2.51333E-02-2.36635E-02 4.33933E-02 1.47436E-03-5.81910E-03
 -1      1372 1.08987E-01-2.78482E-02-2.88946E-02 4.85604E-02 4.25244E-04-2.01102E-03
 -1      1373 1.11137E-01-3.09448E-02-3.10073E-02 4.71979E-02 6.95039E-04-1.47187E-03
 -1      1374 1.08886E-01-2.76771E-02-3.07403E-02 4.67575E-02 8.47900E-04-3.80130E-03
 -1      1375 1.14597E-01-3.08940E-02-3.28177E-02 4.95924E-02 6.48938E-04-1.09604E-03
 -1      1376 1.08010E-01-3.03015E-02-2.84227E-02 4.24554E-02-7.67508E-05 4.94644E-04
 -1      1377 1.03091E-01-2.66759E-02-2.44930E-02 4.39274E-02 4.24651E-04-1.00339E-03
 -1      1378 1.08427E-01-3.16923E-02-3.03417E-02 4.08306E-02 8.03542E-04-1.77847E-03
 -1      1379 1.00579E-01-3.09441E-02-2.65706E-02 3.57501E-02 3.99582E-05-1.52613E-04
 -1      1380 9.46157E-02-2.70184E-02-2.34336E-02 3.71257E-02 6.63855E-05-1.42927E-03
 -1      1381 9.48308E-02-2.47068E-02-2.19041E-02 3.86994E-02-4.60484E-04 1.16633E-03
 -1      1382 9.27796E-02-1.14747E-02-1.53937E-02 4.41780E-02 5.18118E-04-1.37224E-02
 -1      1383 1.10831E-01-2.51663E-02-2.94715E-02 4.73199E-02 2.25007E-04-3.69047E-03
 -1      1384 9.73654E-02-1.41205E-02-2.24164E-02 4.62300E-02 2.07943E-04-1.50407E-02
 -1      1385 1.15076E-01-2.85326E-02-3.25331E-02 4.82597E-02 1.40214E-03-3.17761E-03
 -1      1386 1.06231E-01-2.36578E-02-2.83214E-02 4.73621E-02 1.41714E-03-4.66936E-03
 -1      1387 1.10438E-01-2.91679E-02-2.97822E-02 4.83310E-02-1.99863E-06 6.29167E-04
 -1      1388 1.19776E-01-3.43063E-02-3.33019E-02 2.74373E-02 6.01148E-04 2.24948E-04
 -1      1389 1.12689E-01-3.44814E-02-3.20917E-02 2.14304E-02 4.27799E-04-7.58196E-04
 -1      1390 9.24369E-02-2.72338E-02-2.71033E-02 3.69089E-02-2.17219E-03 2.76484E-03
 -1      1391 9.77612E-02-2.82839E-02-2.77764E-02 3.77343E-02-2.53448E-03 4.83172E-03
 -1      1392 1.03106E-01-3.10750E-02-3.00497E-02 4.25513E-02-1.46808E-03 1.83451E-03
 -1      1393 1.02845E-01-3.17869E-02-3.05836E-02 3.95173E-02-1.31695E-03 1.81740E-03
 -1      1394 1.09185E-01-3.26513E-02-3.21051E-02 4.00902E-02-1.83528E-03 2.86843E-03
 -1      1395 9.78388E-02-2.92130E-02-2.87947E-02 3.39497E-02-2.70675E-03 3.52355E-03
 -1      1396 1.15066E-01-3.29923E-02-3.31039E-02 4.58769E-02-4.12864E-05-9.17349E-05
 -1      1397 1.16731E-01-3.29623E-02-3.26966E-02 4.75704E-02 3.75590E-05 9.27572E-04
 -1      1398 1.17225E-01-3.18675E-02-2.97944E-02 4.77228E-02-1.72080E-04-8.82499E-05
 -1      1399 1.17174E-01-3.34224E-02-3.28065E-02 4.69731E-02-2.25612E-04-4.88434E-04
 -1      1400 1.45688E-01-4.48788E-02-2.35516E-02 3.32562E-02 4.99644E-04-1.65546E-03
 -1      1401 1.50001E-01-4.76045E-02-2.59772E-02 3.13548E-02 2.61074E-03-8.84161E-03
 -1      1402 8.61325E-02-2.60201E-02-2.53243E-02 3.00894E-02-1.97102E-03 3.29581E-03
 -1      1403 9.79108E-02-2.97795E-02-2.92229E-02 3.21653E-02-1.69724E-03 1.94734E-03
 -1      1404 9.44750E-02-2.80690E-02-2.80525E-02 2.57229E-02-1.20434E-03 3.83389E-03
 -1      1405 1.07144E-01-3.15640E-02-3.03830E-02 4.09923E-02-1.13975E-03 1.78141E-03
 -1      1406 1.01541E-01-3.02332E-02-3.03206E-02 2.19638E-02-6.85086E-04 2.11636E-03
 -1      1407 9.89738E-02-2.92868E-02-3.03814E-02 2.10509E-02-1.17776E-03 2.98059E-03
 -1      1408 1.11428E-01-3.30608E-02-3.19575E-02 3.91115E-02-1.21944E-03 1.56039E-03
 -1      1409 1.05446E-01-3.18498E-02-3.04022E-02 4.00370E-02-1.97181E-03 3.71332E-03
 -1      1410 1.16750E-01-2.65552E-02-2.69426E-02 4.88256E-02-6.49995E-04 1.48433E-03
 -1      1411 1.22291E-01-3.36546E-02-3.11944E-02 4.42887E-02 5.31597E-04 8.47944E-04
 -1      1412 1.14917E-01-2.90238E-02-3.09857E-02 4.55636E-02 4.17346E-05 1.85559E-03
 -1      1413 1.15385E-01-2.39405E-02-2.63622E-02 4.91330E-02-8.45702E-04 6.83644E-03
 -1      1414 1.22677E-01-3.14542E-02-3.34339E-02 4.35902E-02-1.32375E-04 3.40437E-03
 -1      1415 1.24115E-01-3.04186E-02-2.68919E-02 4.93961E-02-5.05323E-04 5.53354E-03
 -1      1416 1.12947E-01-3.47009E-02-3.20842E-02 2.13636E-02-7.24981E-04 1.00516E-03
 -1      1417 1.18635E-01-3.49711E-02-3.37518E-02 2.56460E-02-5.13314E-04 5.54836E-04
 -1      1418 1.11856E-01-3.38670E-02-3.31896E-02 2.00077E-02-1.09205E-03 2.52460E-03
 -1      1419 1.14162E-01-3.28232E-02-3.32887E-02 4.15437E-02-1.15481E-03 1.26794E-03
 -1      1420 1.07278E-01-3.11288E-02-3.23297E-02 4.95636E-02-5.68676E-04-3.54250E-04
 -1      1421 1.04649E-01-3.09235E-02-3.08900E-02 4.52613E-02-1.45599E-03 1.22536E-03
 -1      1422 1.03523E-01-2.68108E-02-3.10636E-02 4.73097E-02-1.32185E-03 3.27124E-03
 -1      1423 1.06008E-01-2.76824E-02-3.02174E-02 4.40773E-02-1.92318E-03 4.80993E-03
 -1      1424 1.09886E-01-2.80150E-02-3.31927E-02 4.88891E-02-9.65086E-04 2.68750E-03
 -1      1425 1.11275E-01-2.62111E-02-2.83208E-02 4.76517E-02 1.78789E-04 2.64374E-03
 -1      1426 1.09597E-01-2.37632E-02-2.43159E-02 4.77527E-02-5.30104E-04 8.80619E-04
 -1      1427 8.21623E-02-1.13167E-02-1.22969E-02 3.65191E-02 1.47461E-03-1.39994E-02
 -1      1428 8.44668E-02-1.09813E-02-1.29354E-02 3.77729E-02 8.58149E-04-8.69905E-03
 -1      1429 8.98961E-02-2.02383E-02-1.88849E-02 3.66113E-02 2.05292E-03-8.09173E-03
 -1      1430 1.11497E-01-2.87335E-02-3.12398E-02 4.95055E-02-2.08859E-04 2.10289E-03
 -1      1431 1.17018E-01-3.23166E-02-3.49447E-02 4.58585E-02 4.23302E-04-3.76752E-05
 -1      1432 1.17806E-01-3.47955E-02-3.31710E-02 4.06871E-02 3.60550E-04-5.16022E-04
 -1      1433 1.15289E-01-3.31485E-02-3.31329E-02 4.56346E-02-2.02990E-04-2.51103E-04
 -1      1434 1.14232E-01-3.09375E-02-2.98472E-02 4.48223E-02-9.51442E-05 8.10124E-04
 -1      1435 1.34750E-01-4.34751E-02-9.84294E-03 3.46050E-02 2.27920E-04-9.33638E-03
 -1      1436 1.13473E-01-1.54386E-02-1.79490E-02 5.49873E-02 4.43152E-04-1.00352E-02
 -1      1437 1.45884E-01-4.68059E-02-2.53211E-02 3.12770E-02 1.17046E-03-7.28565E-03
 -1      1438 1.44245E-01-4.43309E-02-2.35484E-02 3.53211E-02 4.47093E-04-3.66654E-03
 -1      1439 1.23873E-01-3.03925E-02-2.64453E-02 4.88047E-02-1.55715E-04-4.06459E-03
 -1      1440 1.10814E-01-1.53130E-02-1.38473E-02 5.45569E-02 2.58947E-04-3.82725E-03
 -1      1441 1.08478E-01-3.14798E-02-3.20505E-02 4.40588E-02 1.41575E-03-2.12104E-03
 -1      1442 1.08469E-01-3.20467E-02-3.18441E-02 3.89801E-02 1.93660E-03-1.97107E-03
 -1      1443 1.07221E-01-3.22856E-02-3.06952E-02 3.84590E-02 1.72465E-03-2.06801E-03
 -1      1444 1.09109E-01-3.33335E-02-3.22053E-02 2.08089E-02 1.08762E-03-2.59339E-03
 -1      1445 1.11296E-01-3.31844E-02-3.17092E-02 3.97251E-02 1.16449E-03-1.49803E-03
 -1      1446 1.11683E-01-3.15646E-02-3.14468E-02 4.59533E-02-1.02516E-03 1.40351E-03
 -1      1447 1.06972E-01-2.94134E-02-2.74949E-02 4.51356E-02 2.13121E-05 9.32976E-05
 -1      1448 1.02563E-01-2.97299E-02-2.61464E-02 3.91486E-02 1.10629E-05 3.65789E-04
 -1      1449 9.78205E-02-2.77302E-02-2.31571E-02 3.99042E-02-1.19960E-03 3.27972E-03
 -1      1450 1.55455E-01-4.65148E-02-2.64500E-02 3.91072E-02-9.08809E-04 1.50716E-02
 -1      1451 1.17412E-01-1.49606E-02-1.57280E-02 5.60626E-02-1.32166E-03 1.57841E-02
 -1      1452 1.54944E-01-4.70752E-02-8.08997E-03 4.30119E-02 2.95788E-04 1.84599E-02
 -1      1453 1.70447E-01-6.06414E-02-2.53091E-02 3.28431E-02-2.69792E-03 1.87533E-02
 -1      1454 1.32011E-01-2.13828E-02-1.54820E-02 5.53541E-02-2.51411E-03 2.05916E-02
 -1      1455 1.39770E-01-3.31328E-02-3.51033E-02 4.76166E-02-7.28560E-04 1.44159E-02
 -1      1456 8.24401E-02-1.42899E-02-1.17976E-02 3.46919E-02 1.50683E-04-1.00449E-03
 -1      1457 8.31264E-02-1.43006E-02-1.19905E-02 3.54836E-02-5.10749E-04 2.88627E-03
 -1      1458 7.53210E-02-1.70257E-02-1.06864E-02 2.77781E-02-4.28761E-04 2.41180E-03
 -1      1459 7.42415E-02-1.72342E-02-1.06286E-02 2.67302E-02 3.32265E-04-1.34677E-03
 -1      1460 1.15642E-01-3.29634E-02-3.30126E-02 5.06173E-02 8.14065E-05 4.46451E-04
 -1      1461 1.10680E-01-3.09634E-02-3.15895E-02 4.69725E-02 5.99908E-04-2.16499E-03
 -1      1462 1.11633E-01-3.02305E-02-3.41888E-02 4.96012E-02 3.95925E-04-6.17689E-04
 -1      1463 1.10774E-01-3.25501E-02-3.28602E-02 2.16214E-02 1.09735E-03-2.11993E-03
 -1      1464 1.09223E-01-3.23543E-02-3.25582E-02 3.83971E-02 1.07309E-03-9.69173E-04
 -1      1465 9.87963E-02-2.99275E-02-2.99403E-02 2.04348E-02 8.29733E-04-2.84698E-03
 -1      1466 9.77774E-02-2.93370E-02-2.94272E-02 2.05099E-02 1.54433E-03-4.36123E-03
 -1      1467 9.92766E-02-3.04083E-02-2.93632E-02 3.75985E-02 1.67158E-03-2.55508E-03
 -1      1468 9.36124E-02-2.63195E-02-2.47013E-02 3.64947E-02-3.11087E-03 6.62482E-03
 -1      1469 8.70426E-02-2.47546E-02-2.50892E-02 3.29213E-02-2.48759E-03 4.13988E-03
 -1      1470 9.67642E-02-2.74531E-02-2.77483E-02 3.87099E-02-2.18060E-03 2.77895E-03
 -1      1471 9.79039E-02-2.96507E-02-2.94830E-02 3.71467E-02-1.49714E-03 1.08725E-03
 -1      1472 9.50952E-02-2.81767E-02-2.73951E-02 3.40580E-02-2.67141E-03 4.48096E-03
 -1      1473 1.06940E-01-3.16737E-02-3.18650E-02 4.88962E-02 8.32917E-04-4.27686E-04
 -1      1474 1.08442E-01-3.15167E-02-3.28506E-02 4.71931E-02 7.39691E-04-6.86514E-04
 -1      1475 1.10905E-01-3.15822E-02-3.34007E-02 4.49920E-02 1.49386E-03-1.39537E-03
 -1      1476 1.04260E-01-3.17184E-02-3.09920E-02 4.35095E-02 1.05648E-03-1.42389E-03
 -1      1477 7.87523E-02-2.39500E-02-2.38866E-02 1.55297E-02-1.05599E-03 2.70878E-03
 -1      1478 8.32554E-02-2.50925E-02-2.44105E-02 2.92680E-02-1.83070E-03 3.99522E-03
 -1      1479 7.67744E-02-2.32246E-02-2.25713E-02 1.65128E-02-1.89542E-03 5.97457E-03
 -1      1480 9.31126E-02-2.78278E-02-2.84126E-02 2.04507E-02-1.50311E-03 3.57938E-03
 -1      1481 9.61845E-02-2.93117E-02-2.87861E-02 3.29845E-02-1.52980E-03 1.56773E-03
 -1      1482 1.28458E-01-3.73382E-02-3.57257E-02 2.26029E-02-6.63490E-04-1.69819E-03
 -1      1483 1.20596E-01-3.29413E-02-3.56510E-02 3.66764E-02-2.75924E-04-9.52453E-04
 -1      1484 1.12857E-01-3.41595E-02-3.39751E-02 1.60097E-02-9.34924E-04 2.37551E-03
 -1      1485 1.13134E-01-3.40494E-02-3.35901E-02 1.98731E-02-1.44092E-03 3.05532E-03
 -1      1486 1.08666E-01-3.24607E-02-3.26958E-02 3.40290E-02-9.61962E-04 2.43145E-03
 -1      1487 1.18669E-01-3.29252E-02-3.41171E-02 3.96825E-02-9.13741E-04-1.21579E-03
 -1      1488 1.13045E-01-3.00385E-02-3.03643E-02 4.91165E-02-5.92863E-04 5.01021E-04
 -1      1489 1.14485E-01-2.76653E-02-2.79105E-02 4.83750E-02-4.65997E-04-2.79254E-04
 -1      1490 1.13048E-01-3.23193E-02-3.25238E-02 4.61840E-02-4.28464E-04 3.15869E-04
 -1      1491 1.14524E-01-3.21485E-02-3.32267E-02 4.76187E-02-4.03081E-04-4.35681E-04
 -1      1492 1.11497E-01-3.17757E-02-3.34302E-02 4.56784E-02-1.46083E-03 1.53883E-03
 -1      1493 1.05016E-01-3.13002E-02-2.92090E-02 3.85634E-02 6.54766E-04-9.70806E-04
 -1      1494 1.09399E-01-3.09491E-02-3.04098E-02 4.43878E-02 7.07445E-04-9.71883E-04
 -1      1495 9.49404E-02-2.68770E-02-2.15962E-02 3.76422E-02 5.90647E-04-2.06301E-03
 -1      1496 1.05426E-01-2.86859E-02-2.79537E-02 4.35999E-02-1.11551E-03 2.51278E-03
 -1      1497 9.81861E-02-2.91097E-02-2.60693E-02 3.76715E-02-1.03160E-03 1.71080E-03
 -1      1498 1.28161E-01-3.79185E-02-2.95241E-02 2.53048E-02 2.04578E-04-1.16532E-04
 -1      1499 8.03973E-02-2.42901E-02-2.37307E-02 1.79621E-02-2.20012E-03 5.28893E-03
 -1      1500 6.92732E-02-2.03101E-02-1.94934E-02 1.69209E-02-1.78354E-03 7.66067E-03
 -1      1501 8.14488E-02-9.27629E-03-2.40373E-02 3.05766E-02-4.61981E-04 1.25179E-02
 -1      1502 7.47192E-02-1.42248E-02-1.15926E-02 2.72196E-02-1.85492E-03 1.60912E-02
 -1      1503 9.02631E-02-2.01934E-02-2.76970E-02 3.16889E-02-1.34108E-03 6.80076E-03
 -1      1504 1.01165E-01-2.03233E-02-3.10758E-02 4.04257E-02-1.19720E-03 7.78559E-03
 -1      1505 9.57988E-02-2.21879E-02-2.62504E-02 3.74515E-02-2.52476E-03 9.56476E-03
 -1      1506 8.62236E-02-1.21774E-02-1.58406E-02 3.66003E-02-1.57968E-03 1.65776E-02
 -1      1507 1.35746E-01-3.94898E-02-3.37083E-02 2.37583E-02-1.82604E-04-5.43495E-03
 -1      1508 1.25639E-01-3.66508E-02-3.38260E-02 2.24651E-02-4.05405E-04-1.80896E-03
 -1      1509 1.17768E-01-2.84748E-02-3.56439E-02 4.56902E-02-3.61440E-05 1.53537E-03
 -1      1510 4.31295E-02-8.12245E-03-4.66143E-03 4.40828E-03 1.02581E-03-1.39637E-02
 -1      1511 6.55693E-02-1.36491E-02-1.64290E-02 1.52536E-02 1.44472E-03-1.13230E-02
 -1      1512 1.12457E-01-3.20674E-02-3.37474E-02 4.59455E-02-1.47611E-03 1.08018E-03
 -1      1513 1.02626E-01-2.94731E-02-2.77086E-02 4.06055E-02 1.90793E-03-4.70513E-03
 -1      1514 1.33122E-01-3.99503E-02-3.13622E-02 2.39002E-02-5.50059E-05-3.99260E-03
 -1      1515 1.13733E-01-3.25724E-02-3.27127E-02 4.56463E-02 2.25220E-04-4.24129E-04
 -1      1516 1.15703E-01-3.26291E-02-3.36046E-02 4.70682E-02-1.73587E-04 1.15840E-03
 -1      1517 1.18937E-01-3.52330E-02-2.95329E-02 4.23255E-02 3.36495E-04 2.41559E-04
 -1      1518 7.28647E-02-1.90477E-02-1.30046E-02 2.47336E-02 1.05116E-03-5.18132E-03
 -1      1519 7.10165E-02-2.09130E-02-1.78555E-02 2.13802E-02 1.14820E-03-4.48178E-03
 -1      1520 4.20319E-02-1.10207E-02-5.68615E-03 6.18729E-03-2.93721E-04-5.10967E-03
 -1      1521 6.88980E-02-1.93048E-02-1.26435E-02 2.14775E-02 3.00684E-04-2.29892E-03
 -1      1522 6.59253E-02-1.98951E-02-1.78357E-02 1.68232E-02 4.63395E-04-2.15879E-03
 -1      1523 9.55475E-02-2.95114E-02-2.42442E-02 3.55257E-02 4.66541E-04-1.40126E-03
 -1      1524 1.08198E-01-3.10043E-02-3.29104E-02 4.97531E-02 2.89617E-04-7.00339E-04
 -1      1525 7.56967E-02-1.19312E-02-9.14131E-03 2.97337E-02-8.99621E-04 6.14171E-03
 -1      1526 9.55560E-02-2.18566E-02-2.02900E-02 4.05853E-02-1.23802E-03 4.51736E-03
 -1      1527 8.81113E-02-2.41999E-02-1.88912E-02 3.34342E-02-9.11430E-04 4.13107E-03
 -1      1528 5.88169E-02-1.81921E-02-1.49162E-02 1.46493E-02 8.43353E-04-7.13051E-03
 -1      1529 6.31609E-02-1.67754E-02-1.00000E-02 1.82694E-02 1.01870E-03-8.92998E-03
 -1      1530 8.99254E-02-2.71362E-02-2.28298E-02 3.27765E-02 3.18207E-03-6.18497E-03
 -1      1531 4.20065E-02-1.05863E-02-5.74479E-03 6.22238E-03 1.73958E-04 5.18676E-03
 -1      1532 6.03603E-02-1.80658E-02-1.46643E-02 1.54577E-02-9.01617E-04 7.58965E-03
 -1      1533 6.47159E-02-1.68770E-02-9.73190E-03 1.87970E-02-1.02378E-03 8.86419E-03
 -1      1534 6.86579E-02-1.94311E-02-1.23831E-02 2.12537E-02-6.95281E-04 2.77960E-03
 -1      1535 8.55286E-02-2.53891E-02-2.14816E-02 3.02477E-02-1.80376E-03 4.42604E-03
 -1      1536 6.57778E-02-1.98912E-02-1.76639E-02 1.66787E-02-4.18267E-04 2.59726E-03
 -1      1537 6.82131E-02-1.68710E-02-1.13529E-02 2.09222E-02-1.50399E-03 8.72248E-03
 -1      1538 8.82452E-02-2.66312E-02-2.08927E-02 3.20256E-02-1.76248E-03 4.91620E-03
 -1      1539 6.61272E-02-1.76243E-02-1.00757E-02 2.09809E-02-5.17039E-04 3.14929E-03
 -1      1540 6.74527E-02-1.19509E-02-8.87631E-03 2.22698E-02-7.80073E-04 6.93429E-03
 -1      1541 8.89986E-02-2.35756E-02-2.09974E-02 3.36684E-02-2.66013E-03 8.05514E-03
 -1      1542 1.06417E-01-2.59858E-02-2.70695E-02 4.56744E-02-1.35686E-03 3.59985E-03
 -1      1543 8.83577E-02-1.31696E-02-1.37319E-02 4.03889E-02-3.30159E-04 7.12971E-03
 -1      1544 8.61504E-02-1.71400E-02-1.52591E-02 3.60374E-02-8.86800E-04 8.18570E-03
 -1      1545 7.98252E-02-1.26451E-02-1.04607E-02 3.29713E-02-5.28198E-04 5.39982E-03
 -1      1546 1.00634E-01-2.26709E-02-2.20678E-02 4.39145E-02 1.22137E-04 2.03236E-03
 -1      1547 1.07082E-01-3.03760E-02-3.08113E-02 4.37132E-02 8.03166E-04-2.23888E-03
 -1      1548 1.02791E-01-3.12262E-02-2.91686E-02 3.79335E-02 1.64250E-03-3.31907E-03
 -1      1549 1.01668E-01-2.25322E-02-2.23670E-02 4.52354E-02 3.78043E-04-1.75902E-03
 -1      1550 1.08996E-01-2.77637E-02-3.02180E-02 4.82833E-02 6.75079E-04-2.73943E-03
 -1      1551 1.10800E-01-2.86991E-02-2.96797E-02 4.83235E-02 1.68723E-04-1.55296E-03
 -1      1552 1.10402E-01-2.87861E-02-3.08095E-02 4.88299E-02-1.29928E-04 1.13055E-03
 -1      1553 1.20406E-01-2.87045E-02-3.55310E-02 4.61754E-02 5.31327E-05-2.89518E-03
 -1      1554 1.09667E-01-3.12456E-02-3.34848E-02 4.18686E-02-8.78584E-04 1.45624E-03
 -1      1555 7.79996E-02-1.78673E-02-1.35598E-02 2.83992E-02 1.03498E-03-7.21893E-03
 -1      1556 6.92986E-02-1.55105E-02-1.16491E-02 2.23358E-02 1.39248E-03-1.03478E-02
 -1      1557 8.85228E-02-1.28631E-02-1.30123E-02 4.18488E-02-8.01026E-04 5.60493E-03
 -1      1558 1.03796E-01-2.32722E-02-2.47078E-02 4.58186E-02-1.12968E-03 5.69570E-03
 -1      1559 1.02021E-01-3.05353E-02-3.02722E-02 2.20035E-02-3.59204E-04 1.35809E-03
 -1      1560 9.85514E-02-2.89898E-02-2.99091E-02 2.53219E-02-1.18781E-03 3.42332E-03
 -1      1561 1.01602E-01-2.96458E-02-3.09800E-02 1.94732E-02-1.13228E-03 2.73438E-03
 -1      1562 1.06567E-01-3.09500E-02-3.22077E-02 4.88063E-02 1.10245E-03-2.53763E-04
 -1      1563 1.04560E-01-2.76045E-02-3.24903E-02 4.80014E-02 1.26544E-03-7.56520E-04
 -1      1564 1.11495E-01-2.99578E-02-3.45743E-02 4.87876E-02 9.84607E-04-1.41612E-03
 -1      1565 1.06225E-01-2.85161E-02-3.12465E-02 4.54959E-02 1.22465E-03-3.82164E-03
 -1      1566 1.04741E-01-2.40316E-02-3.00785E-02 4.49231E-02 1.46408E-03-6.66063E-03
 -1      1567 9.97522E-02-2.61868E-02-2.94550E-02 4.42525E-02 1.23257E-03-3.67712E-03
 -1      1568 1.11239E-01-3.14690E-02-3.38825E-02 4.08978E-02-5.91586E-04 1.88878E-03
 -1      1569 1.16286E-01-2.92137E-02-3.38941E-02 4.69724E-02 1.94601E-04-1.14871E-03
 -1      1570 1.09984E-01-2.64684E-02-3.46577E-02 4.81500E-02 3.31866E-04-7.39332E-04
 -1      1571 1.13480E-01-3.07709E-02-3.40498E-02 4.46779E-02-3.24116E-04-1.96862E-05
 -1      1572 1.13476E-01-3.44662E-02-3.41361E-02 1.56437E-02 1.06980E-03-2.62477E-03
 -1      1573 1.04524E-01-3.11664E-02-3.20046E-02 1.54652E-02 7.46168E-04-3.46606E-03
 -1      1574 1.15696E-01-3.32396E-02-3.41712E-02 3.56369E-02 8.55894E-04-1.21075E-03
 -1      1575 1.21205E-01-3.56423E-02-3.48598E-02 2.22173E-02 9.95976E-04-1.31810E-03
 -1      1576 9.60912E-02-1.12161E-02-2.58730E-02 4.35287E-02 2.16088E-04-1.60718E-02
 -1      1577 1.06103E-01-2.51528E-02-3.49402E-02 4.80156E-02 1.06008E-03-1.18510E-03
 -1      1578 8.13387E-02-1.78481E-02-1.50963E-02 3.10215E-02-1.30270E-03 8.29703E-03
 -1      1579 7.47707E-02-1.26489E-02-1.00400E-02 2.81440E-02-6.29326E-04 6.08690E-03
 -1      1580 1.01963E-01-3.05352E-02-3.04546E-02 2.16866E-02 3.35234E-04-1.50711E-03
 -1      1581 9.95375E-02-2.92458E-02-3.04538E-02 2.10637E-02 1.25252E-03-3.28492E-03
 -1      1582 1.11913E-01-3.39795E-02-3.37763E-02 1.59264E-02 6.75075E-04-2.44422E-03
 -1      1583 1.26397E-01-3.58943E-02-3.59838E-02 2.32341E-02 4.74699E-04 5.05441E-04
 -1      1584 1.11097E-01-3.36535E-02-3.31955E-02 2.05111E-02 1.47843E-03-2.93186E-03
 -1      1585 1.03031E-01-3.07183E-02-3.10090E-02 4.38817E-02 1.38278E-03-1.05080E-03
 -1      1586 1.01630E-01-2.84232E-02-2.95783E-02 3.87423E-02 2.21091E-03-4.56625E-03
 -1      1587 1.48867E-01-4.76784E-02-2.77630E-02 3.23167E-02-2.18289E-03 8.53424E-03
 -1      1588 1.13686E-01-1.64806E-02-1.77294E-02 5.23356E-02-1.24986E-03 1.05369E-02
 -1      1589 1.36449E-01-4.29208E-02-1.08069E-02 3.62931E-02-7.14427E-04 9.46110E-03
 -1      1590 1.44650E-01-4.47889E-02-2.38390E-02 3.48251E-02-1.97698E-04 3.61131E-03
 -1      1591 1.10282E-01-1.44179E-02-1.35556E-02 5.43970E-02-1.08889E-04 4.18151E-03
 -1      1592 1.21624E-01-3.76717E-02-3.43722E-02 1.94411E-02-9.39498E-04-4.46410E-04
 -1      1593 8.01948E-02-2.38543E-02-2.25230E-02 2.23262E-02 1.65042E-03-4.61739E-03
 -1      1594 6.96758E-02-2.06966E-02-2.00688E-02 1.51538E-02 1.93706E-03-7.42354E-03
 -1      1595 8.58229E-02-1.20639E-02-1.53358E-02 3.79150E-02-1.25756E-03 1.14698E-02
 -1      1596 1.04301E-01-2.56461E-02-2.88569E-02 4.38285E-02-1.76134E-03 6.77058E-03
 -1      1597 1.05811E-01-2.24779E-02-2.61263E-02 4.75713E-02-1.70784E-03 6.67814E-03
 -1      1598 1.12054E-01-2.70083E-02-3.25998E-02 4.53281E-02-6.64193E-04 4.13366E-03
 -1      1599 1.13462E-01-2.14250E-02-3.10537E-02 4.81718E-02-1.31101E-03 1.05570E-02
 -1      1600 6.43099E-02-1.90036E-02-1.60687E-02 1.78320E-02-1.07161E-03 7.33795E-03
 -1      1601 4.16138E-02-9.89406E-03-5.84907E-03 5.91123E-03 4.08727E-05 5.09439E-03
 -1      1602 6.28589E-02-1.87548E-02-1.56240E-02 1.69511E-02-3.26827E-04 2.92096E-03
 -1      1603 1.05021E-01-2.22786E-02-2.36687E-02 4.75999E-02 5.84220E-04-8.19310E-04
 -1      1604 8.74851E-02-2.67921E-02-2.62690E-02 1.76095E-02-2.94617E-04 2.34670E-03
 -1      1605 9.84941E-02-2.88590E-02-2.55230E-02 3.80557E-02-6.57758E-04 2.00730E-03
 -1      1606 1.03254E-01-3.14599E-02-2.80755E-02 3.45996E-02-3.24276E-05 5.60969E-04
 -1      1607 1.00659E-01-2.52583E-02-2.49931E-02 4.20205E-02 1.10091E-03-3.81280E-03
 -1      1608 1.09814E-01-2.77084E-02-3.43847E-02 4.82945E-02-1.77568E-05 4.44426E-04
 -1      1609 1.29232E-01-3.72813E-02-3.29162E-02 2.90931E-02 4.33317E-04 2.96700E-03
 -1      1610 8.53251E-02-2.58908E-02-2.51576E-02 1.77743E-02-5.15411E-04 2.42046E-03
 -1      1611 7.45308E-02-2.20188E-02-2.11513E-02 1.89391E-02-2.12315E-03 6.97112E-03
 -1      1612 8.69434E-02-2.55927E-02-2.58328E-02 2.56932E-02-1.45214E-03 4.54739E-03
 -1      1613 7.27452E-02-2.23750E-02-1.95980E-02 1.82883E-02-7.52406E-04 4.19720E-03
 -1      1614 7.95386E-02-1.84323E-02-1.28617E-02 3.01219E-02 6.70433E-04-3.99832E-03
 -1      1615 1.20016E-01-3.29463E-02-3.42342E-02 3.83846E-02-8.81939E-04-1.18555E-03
 -1      1616 7.75483E-02-7.78651E-03-2.18026E-02 2.02573E-02 8.08735E-04-1.72575E-02
 -1      1617 7.93054E-02-8.25479E-03-1.99035E-02 2.41787E-02 1.92015E-03-1.75296E-02
 -1      1618 6.78351E-02-1.20433E-02-8.69289E-03 2.35163E-02 6.75923E-04-1.49647E-02
 -1      1619 8.49398E-02-1.86444E-02-2.16145E-02 2.57851E-02 1.86896E-03-1.16427E-02
 -1      1620 1.34663E-01-4.25692E-02-1.16062E-02 3.47185E-02-3.57688E-04-1.02174E-02
 -1      1621 1.12267E-01-1.84558E-02-1.43567E-02 5.36403E-02-8.57123E-04-3.86069E-03
 -1      1622 1.14370E-01-1.63514E-02-1.67214E-02 5.34684E-02 4.96973E-04-1.09524E-02
 -1      1623 1.08685E-01-3.12993E-02-3.26990E-02 4.99096E-02-1.39638E-04 5.96709E-04
 -1      1624 1.07378E-01-3.17029E-02-3.18262E-02 5.05204E-02 2.76165E-04 2.53388E-05
 -1      1625 1.09476E-01-3.02446E-02-3.19454E-02 4.57715E-02-1.27395E-03 2.43377E-03
 -1      1626 1.06640E-01-3.17423E-02-3.18928E-02 4.32809E-02-7.66342E-04 1.57858E-03
 -1      1627 1.07095E-01-2.94913E-02-3.29467E-02 4.87641E-02 3.65334E-04-5.00556E-04
 -1      1628 1.12534E-01-1.90799E-02-1.40893E-02 5.37971E-02 5.18174E-04 4.95742E-03
 -1      1629 1.06125E-01-1.73636E-02-1.53247E-02 4.80118E-02-9.17979E-05 7.63358E-03
 -1      1630 1.11130E-01-1.31507E-02-1.59487E-02 5.69663E-02 2.05292E-04 1.16506E-02
 -1      1631 1.05988E-01-1.37743E-02-1.78330E-02 4.89695E-02 6.39247E-05 1.48427E-02
 -1      1632 7.57510E-02-1.27626E-02-9.60496E-03 2.94235E-02-5.10811E-04 2.49636E-03
 -1      1633 7.00892E-02-1.31592E-02-9.76120E-03 2.40622E-02-9.21438E-04 3.51667E-03
 -1      1634 1.43491E-01-4.00879E-02-1.07633E-02 4.51491E-02 5.01781E-03 1.57967E-02
 -1      1635 6.53054E-02-1.13608E-02-1.01567E-02 1.72982E-02 7.20165E-04-1.74185E-02
 -1      1636 7.49784E-02-2.09240E-02-1.61721E-02 2.39074E-02 2.89210E-03-1.05900E-02
 -1      1637 7.99796E-02-1.73908E-02-2.53237E-02 2.09518E-02 1.19444E-03-9.50226E-03
 -1      1638 1.21132E-01-2.82789E-02-3.57966E-02 4.62262E-02 3.45219E-05-3.87438E-03
 -1      1639 1.45179E-01-4.44614E-02-2.40245E-02 3.28427E-02-7.37187E-04 2.76489E-03
 -1      1640 1.33430E-01-4.31836E-02-1.05870E-02 3.31649E-02 1.29206E-03 1.10193E-02
 -1      1641 1.45556E-01-4.45649E-02-2.44584E-02 3.29737E-02-2.59357E-03 8.81995E-03
 -1      1642 1.06165E-01-3.17101E-02-3.15652E-02 4.37168E-02-7.24291E-04 1.38261E-03
 -1      1643 1.11171E-01-3.12980E-02-3.37536E-02 4.38123E-02-5.10572E-04 5.05536E-05
 -1      1644 1.07239E-01-3.02164E-02-3.26311E-02 4.87685E-02 1.32390E-04-5.69543E-06
 -1      1645 7.52950E-02-2.28398E-02-2.18177E-02 1.76183E-02-7.68420E-04 3.90800E-03
 -1      1646 1.02134E-01-2.88504E-02-2.96630E-02 4.38211E-02-1.71628E-03 2.09939E-03
 -1      1647 1.06454E-01-3.00693E-02-3.24089E-02 4.88921E-02-9.52924E-04-1.40051E-04
 -1      1648 1.02939E-01-2.56706E-02-3.03683E-02 4.68356E-02-1.07644E-03 4.19772E-03
 -1      1649 1.08746E-01-2.64783E-02-3.30190E-02 4.87052E-02-8.21602E-04 3.65398E-03
 -1      1650 1.29669E-01-3.89889E-02-3.43291E-02 2.28070E-02 7.19317E-04 1.45646E-03
 -1      1651 1.28337E-01-3.62549E-02-3.51328E-02 2.48057E-02 3.80904E-04 1.64612E-03
 -1      1652 1.35754E-01-3.90956E-02-3.23736E-02 2.62514E-02 3.01138E-04 6.29194E-03
 -1      1653 9.36966E-02-6.42940E-03-2.90833E-02 4.56326E-02 2.38281E-04 1.47072E-02
 -1      1654 1.16074E-01-1.98899E-02-3.78917E-02 4.65944E-02-2.04573E-03 6.33709E-03
 -1      1655 1.07242E-01-1.77376E-02-3.35603E-02 4.57042E-02-1.34503E-03 7.59048E-03
 -1      1656 7.99843E-02-2.39573E-02-2.37792E-02 1.71408E-02-2.96075E-04 1.67307E-03
 -1      1657 9.21712E-02-2.73220E-02-2.11019E-02 3.55617E-02-8.97995E-05 4.46129E-04
 -1      1658 1.11390E-01-2.96542E-02-3.32979E-02 4.75386E-02-4.15913E-04 5.32873E-04
 -1      1659 1.05557E-01-2.52380E-02-3.20806E-02 4.82817E-02-1.39666E-03 2.93549E-03
 -1      1660 1.25436E-01-3.80952E-02-3.32949E-02 2.23549E-02 3.46536E-04 2.04989E-04
 -1      1661 1.17867E-01-3.43499E-02-3.38892E-02 2.18752E-02 1.03098E-03-1.08722E-03
 -1      1662 1.20264E-01-3.74524E-02-3.20723E-02 2.14962E-02 4.14867E-04 2.36082E-04
 -1      1663 1.12407E-01-3.38667E-02-3.24498E-02 2.11984E-02 6.75962E-04-6.68008E-04
 -1      1664 9.88368E-02-3.00599E-02-2.93519E-02 3.85504E-02 1.73853E-03-1.26753E-03
 -1      1665 9.50280E-02-2.53476E-02-2.76633E-02 3.88261E-02 1.78097E-03-3.96643E-03
 -1      1666 7.96494E-02-2.39800E-02-2.34046E-02 1.85069E-02-1.96026E-03 5.83892E-03
 -1      1667 7.85570E-02-2.38672E-02-2.40242E-02 1.53527E-02-9.60509E-04 2.69215E-03
 -1      1668 9.37731E-02-2.77876E-02-2.86160E-02 1.90558E-02-1.46263E-03 3.64099E-03
 -1      1669 7.75441E-02-1.39982E-02-1.36548E-02 2.92531E-02 1.50724E-03-1.08230E-02
 -1      1670 7.82483E-02-1.40775E-02-1.18240E-02 3.08165E-02 1.39277E-03-7.52290E-03
 -1      1671 9.69996E-02-2.64616E-02-2.44839E-02 3.82325E-02 1.97794E-03-6.20057E-03
 -1      1672 8.91331E-02-2.29571E-02-2.40634E-02 3.32414E-02 2.73867E-03-8.39299E-03
 -1      1673 1.11003E-01-3.18697E-02-3.26462E-02 4.37248E-02 7.13959E-04-3.96205E-04
 -1      1674 1.11376E-01-3.00054E-02-3.38145E-02 4.59677E-02-1.07819E-04 1.42872E-04
 -1      1675 1.07681E-01-2.95645E-02-3.30227E-02 4.98334E-02-2.76381E-04-4.42031E-04
 -1      1676 1.08118E-01-3.14443E-02-3.23144E-02 4.85127E-02 1.96655E-04-5.93617E-04
 -1      1677 8.98660E-02-2.59798E-02-2.60493E-02 3.47675E-02-2.18945E-03 2.86515E-03
 -1      1678 1.20976E-01-3.24075E-02-3.51139E-02 3.76173E-02 2.36460E-04 2.96565E-03
 -1      1679 1.29847E-01-3.89094E-02-2.95015E-02 2.55024E-02 3.73747E-05 1.11318E-03
 -1      1680 3.54249E-02-9.96009E-03-5.55493E-03 4.14410E-03 4.70974E-04-6.37144E-03
 -1      1681 3.09407E-02-7.56507E-03-3.45595E-03 1.75848E-03 3.46151E-04-9.24303E-03
 -1      1682 5.36939E-02-1.56035E-02-1.24371E-02 1.33328E-02 1.19355E-03-9.26544E-03
 -1      1683 5.90395E-02-1.61411E-02-1.01217E-02 1.56170E-02 1.39604E-03-9.84643E-03
 -1      1684 1.40551E-01-4.25604E-02-2.53614E-02 3.06486E-02-1.93441E-04-2.02733E-04
 -1      1685 9.41417E-02-2.88109E-02-2.70827E-02 3.27039E-02 2.67612E-03-4.80853E-03
 -1      1686 8.62745E-02-2.53889E-02-2.49892E-02 3.28887E-02 1.91934E-03-3.19622E-03
 -1      1687 1.04338E-01-3.09696E-02-3.18320E-02 2.02462E-02-1.02171E-03 3.17953E-03
 -1      1688 8.18805E-02-9.13063E-03-2.37857E-02 3.04008E-02 5.33441E-04-1.36482E-02
 -1      1689 8.75964E-02-1.88091E-02-2.38567E-02 3.17123E-02 1.34914E-03-8.91720E-03
 -1      1690 8.81680E-02-1.14062E-02-1.46332E-02 4.07623E-02 9.28462E-04-1.11949E-02
 -1      1691 9.36933E-02-1.43662E-02-2.00837E-02 4.16648E-02 1.98759E-03-1.31543E-02
 -1      1692 1.07100E-01-3.16743E-02-3.19307E-02 2.13751E-02 1.81122E-04-4.06417E-04
 -1      1693 1.05389E-01-2.41908E-02-3.19837E-02 4.84414E-02-8.83977E-04 4.00707E-03
 -1      1694 8.66636E-02-1.31928E-02-1.24429E-02 3.96861E-02-4.08063E-04 8.34165E-04
 -1      1695 8.60798E-02-1.11929E-02-1.20585E-02 3.98854E-02 4.29558E-04-3.75532E-03
 -1      1696 8.17609E-02-1.18635E-02-1.18505E-02 3.45817E-02 6.17506E-04-5.67445E-03
 -1      1697 4.68813E-02-1.13324E-02-6.81474E-03 7.54006E-03 1.33813E-03-1.33897E-02
 -1      1698 6.10993E-02-1.80043E-02-1.84257E-02 1.32007E-02 1.51992E-03-6.83144E-03
 -1      1699 1.05765E-01-2.71149E-02-3.27067E-02 4.94685E-02 8.58168E-04-4.11736E-04
 -1      1700 1.07057E-01-3.19364E-02-3.19564E-02 2.11488E-02-1.52648E-04 3.40192E-04
 -1      1701 8.51748E-02-2.54365E-02-2.55705E-02 2.11824E-02 1.14039E-03-3.56040E-03
 -1      1702 8.08318E-02-2.35385E-02-2.40255E-02 2.10811E-02 1.75190E-03-5.25184E-03
 -1      1703 7.31817E-02-2.16306E-02-1.90103E-02 1.76228E-02 1.23575E-03-4.99548E-03
 -1      1704 7.03543E-02-2.03836E-02-1.77731E-02 1.73356E-02 1.70104E-03-7.11373E-03
 -1      1705 9.00633E-02-2.63390E-02-2.24973E-02 3.41581E-02 2.32013E-03-7.21449E-03
 -1      1706 7.23955E-02-1.37082E-02-9.34403E-03 2.57643E-02-2.52185E-04 2.47904E-04
 -1      1707 7.19885E-02-1.88293E-02-1.27167E-02 2.41896E-02-3.17937E-05 6.43069E-05
 -1      1708 8.86437E-02-1.14273E-02-1.33107E-02 4.20635E-02 4.13809E-04-8.11424E-03
 -1      1709 1.05740E-01-3.24661E-02-3.15161E-02 2.05218E-02-1.12109E-03 2.11273E-03
 -1      1710 1.03737E-01-3.16425E-02-3.09853E-02 3.77714E-02-1.10298E-03 2.15613E-03
 -1      1711 7.74378E-02-2.35951E-02-2.16153E-02 1.79165E-02-1.07576E-05-7.78888E-04
 -1      1712 9.28107E-02-2.80170E-02-2.45575E-02 3.48571E-02 8.21561E-04-1.73584E-03
 -1      1713 8.32668E-02-2.45155E-02-1.76187E-02 2.98277E-02 9.94739E-04-3.63554E-03
 -1      1714 6.93018E-02-1.75856E-02-1.04692E-02 2.38904E-02-7.46102E-05 5.24848E-04
 -1      1715 1.03020E-01-1.68396E-02-1.51970E-02 4.68411E-02-1.79554E-04 2.66298E-03
 -1      1716 1.07384E-01-3.17453E-02-3.19417E-02 5.10791E-02-3.42456E-05-5.69231E-06
 -1      1717 1.06091E-01-3.11465E-02-3.19257E-02 4.73386E-02 6.84133E-04-3.89940E-04
 -1      1718 1.28960E-01-3.66839E-02-1.07837E-02 3.85297E-02-2.07379E-03-5.65678E-03
 -1      1719 1.06487E-01-1.43886E-02-1.31215E-02 5.53081E-02 3.34239E-05 2.48349E-05
 -1      1720 8.77694E-02-2.66397E-02-2.63596E-02 2.05913E-02-9.67825E-04 2.69840E-03
 -1      1721 1.03060E-01-3.18021E-02-3.09137E-02 4.22344E-02-1.22941E-03 1.25340E-03
 -1      1722 6.44172E-02-1.60508E-02-1.09468E-02 1.86916E-02 2.36191E-03-1.23635E-02
 -1      1723 1.07092E-01-2.88085E-02-3.16172E-02 4.51074E-02 1.50464E-03-2.79241E-03
 -1      1724 1.05550E-01-2.80006E-02-3.26405E-02 5.03007E-02 5.99575E-04 6.18493E-04
 -1      1725 8.76564E-02-2.67313E-02-2.61549E-02 2.09725E-02 9.81358E-04-2.76970E-03
 -1      1726 7.85791E-02-2.38808E-02-2.37687E-02 1.57430E-02 1.02751E-03-2.96869E-03
 -1      1727 8.74379E-02-2.60388E-02-2.61528E-02 2.08144E-02 1.83923E-03-4.54535E-03
 -1      1728 9.28705E-02-2.81309E-02-2.72602E-02 3.33257E-02 2.06441E-03-2.62039E-03
 -1      1729 9.33780E-02-2.16950E-02-2.97497E-02 3.32986E-02-9.20313E-04 6.26088E-03
 -1      1730 1.01328E-01-2.02105E-02-3.19392E-02 4.01016E-02-1.46668E-03 8.43509E-03
 -1      1731 9.84958E-02-2.31426E-02-2.76318E-02 3.91729E-02-2.28805E-03 7.99175E-03
 -1      1732 9.83604E-02-2.42054E-02-2.86766E-02 4.25887E-02-1.20186E-03 4.50060E-03
 -1      1733 1.24579E-01-3.65199E-02-1.22674E-02 3.29284E-02 1.00153E-04-1.51781E-04
 -1      1734 1.28981E-01-3.70600E-02-1.07856E-02 3.89242E-02 2.26041E-03 5.67610E-03
 -1      1735 1.29005E-01-3.75173E-02-3.56744E-02 2.23868E-02-1.32148E-04-1.89097E-03
 -1      1736 1.14004E-01-3.44853E-02-3.39728E-02 1.83591E-02-1.22091E-03 2.63309E-03
 -1      1737 1.19998E-01-2.72327E-02-3.54468E-02 4.68485E-02-5.20377E-05 4.58947E-03
 -1      1738 1.14946E-01-3.04248E-02-3.47314E-02 4.37353E-02 1.04306E-04-2.01545E-04
 -1      1739 1.08142E-01-2.30946E-02-3.38213E-02 4.72398E-02-8.16165E-04 3.78572E-03
 -1      1740 1.69683E-01-4.43555E-02-2.04494E-02 4.27717E-02-8.02008E-04-4.30203E-02
 -1      1741 1.46083E-01-3.39427E-02-2.10751E-02 4.44367E-02-6.11507E-03-3.37067E-02
 -1      1742 9.02626E-02-2.72922E-02-2.66969E-02 1.73387E-02 4.71136E-05 4.04809E-04
 -1      1743 9.79480E-02-2.95333E-02-2.97294E-02 2.04754E-02-1.00618E-03 2.93379E-03
 -1      1744 1.05610E-01-2.98350E-02-3.19403E-02 4.97076E-02 7.51863E-04-6.32507E-04
 -1      1745 1.00953E-01-1.41390E-02-1.40035E-02 4.77820E-02-5.32691E-05 2.32605E-03
 -1      1746 3.79755E-02-9.19891E-03-4.10247E-03 4.56057E-05-1.12224E-03 1.52570E-02
 -1      1747 4.39811E-02-8.31954E-03-4.65938E-03 4.82833E-03-1.23620E-03 1.41405E-02
 -1      1748 9.78669E-02-2.58248E-02-2.48667E-02 3.95496E-02-1.70228E-03 5.07583E-03
 -1      1749 1.22739E-01-3.31623E-02-3.62095E-02 3.76413E-02-1.96128E-04-2.11458E-03
 -1      1750 1.09449E-01-3.29173E-02-3.26167E-02 3.33028E-02-1.02683E-03 2.93160E-03
 -1      1751 1.70395E-01-4.31874E-02-1.86778E-02 4.42257E-02-4.21924E-04-4.11779E-02
 -1      1752 1.46615E-01-3.27385E-02-1.98376E-02 4.60881E-02-4.49265E-03-3.38598E-02
 -1      1753 7.70882E-02-2.30984E-02-2.21031E-02 1.75709E-02-3.58059E-04 1.87547E-03
 -1      1754 4.71936E-02-1.30009E-02-8.43636E-03 7.96576E-03 8.28613E-05 1.92296E-03
 -1      1755 6.84929E-02-2.12789E-02-1.81497E-02 1.84332E-02-2.23260E-04 4.57147E-04
 -1      1756 7.19785E-02-2.03278E-02-2.10433E-02 2.07041E-02 2.29718E-03-4.26786E-03
 -1      1757 8.01083E-02-2.21771E-02-2.37076E-02 2.69142E-02 2.15803E-03-4.49366E-03
 -1      1758 9.40983E-02-1.22550E-02-1.44819E-02 4.65860E-02 3.10367E-04-1.01523E-04
 -1      1759 9.49465E-02-1.22816E-02-1.46178E-02 4.67376E-02-2.48817E-04 4.25659E-03
 -1      1760 1.01965E-01-1.60616E-02-1.54838E-02 4.68696E-02 1.85839E-04-1.49319E-03
 -1      1761 8.64957E-02-1.20193E-02-1.56477E-02 3.87611E-02-1.03901E-03 1.04849E-02
 -1      1762 8.51655E-02-1.33927E-02-1.24588E-02 3.80504E-02-5.72091E-04 5.52330E-03
 -1      1763 7.83466E-02-1.14826E-02-9.53554E-03 3.31270E-02-7.45887E-04 8.87503E-03
 -1      1764 9.67028E-02-2.06482E-02-2.30272E-02 4.08859E-02-1.34027E-03 8.38757E-03
 -1      1765 6.88939E-02-2.02828E-02-2.00868E-02 1.88487E-02 1.50038E-03-5.03193E-03
 -1      1766 8.92560E-02-1.17826E-02-1.69197E-02 4.01403E-02-2.13293E-03 1.59326E-02
 -1      1767 5.26293E-02-1.27763E-02-8.63699E-03 1.09541E-02 1.12309E-04-3.93121E-05
 -1      1768 4.68556E-02-1.29016E-02-8.19145E-03 7.81467E-03-2.66339E-04-2.06447E-03
 -1      1769 6.56993E-02-1.76022E-02-1.01155E-02 2.09545E-02 3.53789E-04-2.48943E-03
 -1      1770 9.15620E-02-2.44751E-02-2.06602E-02 3.57516E-02 1.57985E-03-6.96851E-03
 -1      1771 1.02891E-01-3.06798E-02-3.12667E-02 2.07327E-02 1.42031E-03-3.58030E-03
 -1      1772 9.44911E-02-2.82498E-02-2.80722E-02 2.17779E-02 6.22469E-04-1.61598E-03
 -1      1773 1.02470E-01-3.04387E-02-3.06254E-02 2.15432E-02 9.85264E-04-2.04757E-03
 -1      1774 7.06815E-02-2.14287E-02-2.12456E-02 1.59999E-02 8.40974E-04-2.39569E-03
 -1      1775 7.99964E-02-2.35006E-02-2.39554E-02 2.08406E-02 1.98923E-03-4.27795E-03
 -1      1776 8.88081E-02-1.12334E-02-1.67447E-02 3.98603E-02-2.01491E-03 1.59716E-02
 -1      1777 1.06788E-01-2.47819E-02-3.54611E-02 4.61571E-02 1.51062E-03-1.79363E-03
 -1      1778 9.05159E-02-1.17392E-02-2.39419E-02 3.97517E-02 1.33625E-03-1.24332E-02
 -1      1779 8.56312E-02-1.32649E-02-1.44835E-02 3.64299E-02 2.21582E-03-1.60031E-02
 -1      1780 1.00913E-01-2.22955E-02-3.14937E-02 4.24548E-02 9.33891E-04-5.38662E-03
 -1      1781 1.41797E-01-3.93255E-02-1.03261E-02 4.14977E-02-3.48570E-03-1.60239E-02
 -1      1782 1.51621E-01-4.50101E-02-1.00818E-02 4.03084E-02 1.78905E-03-1.62260E-02
 -1      1783 1.55092E-01-4.75814E-02-2.73720E-02 3.58755E-02-9.86867E-04-1.42852E-02
 -1      1784 1.18891E-01-1.88679E-02-1.80145E-02 5.47470E-02 2.86528E-03-1.22231E-02
 -1      1785 8.99225E-02-1.25134E-02-1.38106E-02 4.24147E-02-9.89251E-05 2.14231E-03
 -1      1786 8.67905E-02-1.16376E-02-1.23117E-02 4.05776E-02 2.50945E-04-2.97645E-03
 -1      1787 9.14112E-02-1.19707E-02-1.30232E-02 4.43748E-02 4.75864E-04-5.54665E-03
 -1      1788 1.09119E-01-1.58000E-02-1.55676E-02 5.30803E-02-3.52925E-05 6.21012E-04
 -1      1789 9.21697E-02-1.27177E-02-1.42221E-02 4.40324E-02-4.71153E-04 7.30249E-03
 -1      1790 8.93785E-02-1.10146E-02-1.65122E-02 4.19995E-02-1.01561E-03 1.14741E-02
 -1      1791 8.20980E-02-1.34511E-02-1.32414E-02 3.43065E-02 1.25278E-03-1.00490E-02
 -1      1792 1.28054E-01-3.86435E-02-3.90891E-02 1.11664E-02 7.73104E-04-2.09060E-03
 -1      1793 1.19220E-01-3.58578E-02-3.65485E-02 1.65723E-02 6.46491E-04-1.42473E-03
 -1      1794 1.34335E-01-3.73217E-02-3.79609E-02 2.49045E-02 4.08038E-04 2.21908E-03
 -1      1795 1.26403E-01-3.42228E-02-3.69981E-02 3.47117E-02 3.35217E-04 1.68566E-03
 -1      1796 1.28267E-01-3.82111E-02-3.91622E-02 1.22611E-02-8.54141E-04 1.08929E-03
 -1      1797 1.20022E-01-3.58636E-02-3.65926E-02 1.63259E-02-8.01653E-04 1.40190E-03
 -1      1798 1.38287E-01-3.84099E-02-3.76234E-02 2.44020E-02-2.35200E-04-4.77108E-03
 -1      1799 1.31735E-01-3.40643E-02-3.71563E-02 3.73958E-02-4.40591E-04-3.20315E-03
 -1      1800 5.47130E-02-1.04757E-02-1.36903E-02 1.56079E-03-1.88910E-03 1.10501E-02
 -1      1801 6.60896E-02-1.38555E-02-1.73970E-02 1.04582E-02-1.97736E-03 1.14681E-02
 -1      1802 1.72269E-01-4.65814E-02-5.31729E-02 3.51086E-02 3.05697E-03-1.30220E-02
 -1      1803 1.91704E-01-5.70502E-02-5.58462E-02 3.02137E-02 6.62526E-03-1.23001E-02
 -1      1804 9.36938E-02-2.85009E-02-2.83116E-02 1.64819E-02-5.01301E-05 2.55552E-04
 -1      1805 1.47076E-01-1.74420E-02-3.83749E-02 5.57249E-02 7.02971E-04-2.51421E-02
 -1      1806 1.36914E-01-1.67642E-02-3.30929E-02 5.49229E-02 1.48454E-03-2.58570E-02
 -1      1807 9.38200E-02-2.78298E-02-2.85420E-02 2.04731E-02 1.59449E-03-4.31966E-03
 -1      1808 9.95753E-02-2.90082E-02-2.94194E-02 4.22479E-02 1.59008E-03-1.65559E-03
 -1      1809 9.88659E-02-3.00929E-02-2.90948E-02 4.04499E-02 1.68631E-03-2.10682E-03
 -1      1810 9.52213E-02-2.81085E-02-2.81088E-02 3.64493E-02 2.17745E-03-2.31058E-03
 -1      1811 1.08048E-01-3.18872E-03-3.30664E-02 4.74807E-02-2.00631E-04 2.43524E-02
 -1      1812 1.01157E-01-5.59502E-03-2.80324E-02 4.68598E-02 2.88875E-03 2.28247E-02
 -1      1813 1.26082E-01-1.99288E-02-4.13247E-02 4.88748E-02-1.15960E-03 1.06691E-02
 -1      1814 1.10276E-01-1.32551E-02-2.11762E-02 4.91720E-02-2.04579E-03 2.31134E-02
 -1      1815 6.99611E-02-2.15701E-02-2.12794E-02 1.05967E-02-1.10744E-03 2.74938E-03
 -1      1816 6.26023E-02-1.94263E-02-1.89021E-02 1.09775E-02-8.06557E-04 2.50483E-03
 -1      1817 6.95284E-02-2.04324E-02-1.95269E-02 1.67844E-02-2.05443E-03 7.24626E-03
 -1      1818 7.64555E-02-2.24278E-02-2.19902E-02 2.45309E-02-2.08928E-03 4.72875E-03
 -1      1819 1.13603E-01-3.44822E-02-3.41758E-02 1.58762E-02-9.85679E-04 2.47842E-03
 -1      1820 7.56467E-02-8.47368E-03-2.22283E-02 1.93767E-02-1.02134E-03 1.43984E-02
 -1      1821 8.22922E-02-9.39466E-03-2.53335E-02 2.53758E-02-1.06214E-03 1.39736E-02
 -1      1822 7.48247E-02-1.51244E-02-1.43491E-02 2.39218E-02-2.57878E-03 1.59988E-02
 -1      1823 8.87319E-02-2.03721E-02-2.69811E-02 2.74794E-02-1.85389E-03 7.28073E-03
 -1      1824 1.49927E-01-1.41592E-02-3.73375E-02 5.61528E-02 7.82877E-04-3.06559E-02
 -1      1825 1.34138E-01-1.38654E-02-2.94798E-02 5.74374E-02-2.93155E-03-2.69645E-02
 -1      1826 6.17500E-02-1.79044E-02-1.87894E-02 1.21127E-02-3.06514E-04 6.02711E-03
 -1      1827 5.13489E-02-1.56462E-02-1.46124E-02 4.16204E-03 2.07092E-04 6.44992E-03
 -1      1828 1.73712E-01-5.22938E-02-4.73545E-02 2.58300E-02 2.65725E-03-1.47889E-02
 -1      1829 1.97156E-01-5.44821E-02-5.46281E-02 3.40723E-02 3.63988E-03-2.12890E-02
 -1      1830 8.15432E-02-1.25382E-02-9.88897E-03 3.56608E-02-2.02938E-04 7.45958E-04
 -1      1831 6.09435E-02-1.85736E-02-1.65135E-02 1.53822E-02 1.99254E-03-8.96025E-03
 -1      1832 7.99527E-02-2.30492E-02-2.33060E-02 2.36826E-02 3.08051E-03-5.78337E-03
 -1      1833 9.12602E-02-1.22900E-02-1.34877E-02 4.45777E-02-8.90088E-04 2.85715E-03
 -1      1834 1.05276E-01-2.20235E-02-3.33024E-02 4.48547E-02-1.67947E-03 5.36352E-03
 -1      1835 1.03637E-01-6.33492E-03-3.12113E-02 4.69413E-02-1.26906E-03-2.00001E-02
 -1      1836 1.07216E-01-4.52412E-03-3.22963E-02 4.72706E-02-5.73844E-04-2.35635E-02
 -1      1837 1.19791E-01-1.98795E-02-3.87344E-02 4.74811E-02 2.32559E-03-8.42161E-03
 -1      1838 1.25743E-01-1.94280E-02-3.86378E-02 4.76546E-02 7.66700E-04-1.21338E-02
 -1      1839 1.10008E-01-1.40230E-02-2.03224E-02 5.02847E-02-4.04708E-04-2.40435E-02
 -1      1840 1.06539E-01-3.08997E-02-3.21918E-02 4.83784E-02-7.84995E-04 5.33059E-04
 -1      1841 8.56780E-02-1.05289E-02-1.29782E-02 3.98135E-02 1.39297E-03-1.29582E-02
 -1      1842 8.85892E-02-1.08250E-02-1.34064E-02 4.19630E-02 3.56408E-04-9.10428E-03
 -1      1843 1.13158E-01-1.42717E-02-1.82597E-02 5.21748E-02 1.51742E-03 2.06282E-02
 -1      1844 1.23302E-01-1.75276E-02-1.98208E-02 5.14039E-02-1.02306E-03 2.45765E-02
 -1      1845 9.97324E-02-2.22494E-02-2.41238E-02 4.28268E-02 1.86910E-03-7.08994E-03
 -1      1846 1.52604E-01-4.74927E-02-1.09429E-02 3.76033E-02-1.51497E-03-1.45468E-02
 -1      1847 1.54390E-01-4.71248E-02-1.01166E-02 4.08353E-02-1.31403E-03-1.85953E-02
 -1      1848 1.22130E-01-1.80363E-02-1.88941E-02 5.67886E-02-1.41049E-03-1.85424E-02
 -1      1849 1.55886E-01-4.71371E-02-2.70090E-02 3.55111E-02 5.67395E-04-1.24838E-02
 -1      1850 1.28414E-01-3.39267E-02-3.65470E-02 3.54491E-02-2.33664E-04 3.66563E-03
 -1      1851 8.44200E-02-9.65083E-03-2.11170E-02 3.42370E-02-1.48735E-03 1.38982E-02
 -1      1852 1.27179E-01-2.80640E-02-3.62209E-02 4.50407E-02-9.16541E-04 6.07091E-03
 -1      1853 1.40669E-01-3.85018E-02-4.01776E-02 3.17405E-02 7.06764E-04 6.66558E-03
 -1      1854 1.36574E-01-3.10615E-02-4.19338E-02 4.66733E-02-9.05255E-06 6.52780E-03
 -1      1855 1.28553E-01-3.88268E-02-3.87507E-02 1.22513E-02-9.15480E-04 1.10594E-03
 -1      1856 1.21505E-01-3.62589E-02-3.65523E-02 1.13060E-02-5.61671E-04 2.16597E-03
 -1      1857 1.30893E-01-3.50178E-02-3.70164E-02 3.49545E-02-7.42425E-04-2.50500E-03
 -1      1858 1.38688E-01-3.89916E-02-3.72157E-02 2.45209E-02-1.24738E-03-5.18762E-03
 -1      1859 7.69501E-02-8.32707E-03-2.12473E-02 2.06233E-02-2.74777E-04 1.60604E-02
 -1      1860 7.82431E-02-8.21051E-03-1.95071E-02 2.38172E-02-2.19607E-03 1.64816E-02
 -1      1861 7.11033E-02-1.43203E-02-1.29204E-02 2.41032E-02-3.24176E-04 1.57011E-02
 -1      1862 8.72554E-02-2.02572E-02-2.49025E-02 2.50598E-02-2.10688E-03 9.28066E-03
 -1      1863 8.42102E-02-8.92015E-03-2.12613E-02 3.38496E-02-1.64301E-03 1.45301E-02
 -1      1864 8.93123E-02-1.14989E-02-2.39026E-02 3.94226E-02-1.75904E-03 1.18146E-02
 -1      1865 1.04427E-01-2.22595E-02-3.29643E-02 4.51309E-02-1.58161E-03 4.79819E-03
 -1      1866 6.13226E-02-1.90098E-02-1.86529E-02 1.06104E-02-6.04374E-04 2.37488E-03
 -1      1867 6.95699E-02-2.13585E-02-2.12160E-02 1.02394E-02-1.04049E-03 3.01961E-03
 -1      1868 7.88551E-02-2.36401E-02-2.30394E-02 2.60987E-02-2.31869E-03 4.23907E-03
 -1      1869 7.15543E-02-2.15033E-02-2.05720E-02 1.91299E-02-1.93849E-03 6.04520E-03
 -1      1870 8.92178E-02-1.13056E-02-2.39919E-02 3.96817E-02-1.73682E-03 1.14139E-02
 -1      1871 1.43643E-01-4.61465E-02-2.87760E-02 2.95584E-02-5.03136E-05 2.93519E-04
 -1      1872 1.08702E-01-2.04287E-02-3.64707E-02 4.68049E-02 1.45694E-03-4.66360E-03
 -1      1873 7.76925E-02-2.35379E-02-2.37901E-02 1.54239E-02 8.93612E-04-2.89096E-03
 -1      1874 8.85763E-02-2.68684E-02-2.70632E-02 1.51622E-02 1.02426E-03-3.00660E-03
 -1      1875 9.62414E-02-2.93045E-02-2.88353E-02 3.34928E-02 1.92578E-03-1.94782E-03
 -1      1876 9.17692E-02-2.69803E-02-2.80102E-02 2.11868E-02 1.73457E-03-3.51228E-03
 -1      1877 8.19714E-02-9.39954E-03-2.35105E-02 3.00633E-02-3.39942E-04 1.36379E-02
 -1      1878 7.80940E-02-1.52534E-02-1.42122E-02 2.88942E-02-1.75524E-03 1.45904E-02
 -1      1879 1.37983E-01-3.67123E-02-1.96057E-02 3.53424E-02-2.07844E-03-2.40737E-02
 -1      1880 4.79896E-02-1.09852E-02-7.40194E-03 7.68445E-03-1.07065E-03 1.28943E-02
 -1      1881 7.32241E-02-1.57102E-02-1.33274E-02 2.47153E-02-2.42358E-03 1.02157E-02
 -1      1882 7.29710E-02-1.17240E-02-9.28025E-03 2.69668E-02-7.22169E-04 9.85100E-03
 -1      1883 1.02628E-01-3.09543E-02-3.06921E-02 3.80909E-02 1.24583E-03-2.18153E-03
 -1      1884 9.58737E-02-6.56548E-03-2.94389E-02 4.55526E-02 5.16417E-04-1.63146E-02
 -1      1885 6.35807E-02-1.27364E-02-8.41001E-03 1.89448E-02 1.60008E-03-1.17474E-02
 -1      1886 1.39814E-01-3.56111E-02-1.90073E-02 3.63330E-02-1.00169E-03-2.54144E-02
 -1      1887 1.04806E-01-3.09400E-02-3.19395E-02 1.89823E-02-1.22146E-03 3.50037E-03
 -1      1888 9.56004E-02-1.13265E-02-2.57222E-02 4.37812E-02-3.54105E-04 1.49080E-02
 -1      1889 9.47459E-02-6.76275E-03-2.89795E-02 4.50119E-02-9.11120E-04 1.58825E-02
 -1      1890 9.15520E-02-9.56770E-03-1.91299E-02 4.38958E-02-5.57412E-04 1.84424E-02
 -1      1891 1.06969E-01-1.72640E-02-3.36958E-02 4.56374E-02-1.70653E-03 8.13902E-03
 -1      1892 1.52420E-01-4.40728E-02-4.32754E-02 2.73914E-02 6.46407E-04-7.98846E-03
 -1      1893 6.72049E-02-1.41719E-02-1.66457E-02 1.65675E-02-1.55599E-03 1.11235E-02
 -1      1894 1.19443E-01-1.18804E-02-3.35753E-02 5.42659E-02 7.79285E-04-1.67788E-02
 -1      1895 9.70047E-02-2.95389E-02-2.92409E-02 2.08517E-02 1.11974E-03-2.90452E-03
 -1      1896 1.51625E-01-4.27562E-02-4.26010E-02 2.77286E-02 7.61309E-04-7.19109E-03
 -1      1897 6.22630E-02-1.81959E-02-1.89164E-02 1.40521E-02-1.47723E-03 6.31220E-03
 -1      1898 1.20595E-01-1.37185E-02-3.18828E-02 5.43478E-02-6.43106E-04-1.73343E-02
 -1      1899 5.79398E-02-1.20457E-02-8.33974E-03 1.30296E-02 1.09548E-03-1.38179E-02
 -1      1900 9.06521E-02-1.04480E-02-1.30791E-02 4.48291E-02 4.43774E-04-6.27527E-03
 -1      1901 8.61291E-02-9.98925E-03-2.20348E-02 3.43637E-02 1.97343E-03-1.41138E-02
 -1      1902 9.84491E-02-2.18264E-02-3.00827E-02 3.71229E-02 1.17828E-03-6.98804E-03
 -1      1903 8.24476E-02-1.01129E-02-2.46813E-02 3.08325E-02 1.84753E-04-1.23698E-02
 -1      1904 8.14433E-02-1.37472E-02-1.37737E-02 3.30849E-02 1.30700E-03-1.62596E-02
 -1      1905 7.48428E-02-2.25240E-02-2.23019E-02 1.49482E-02 1.75935E-03-6.26121E-03
 -1      1906 8.21695E-02-2.51539E-02-2.37901E-02 2.75293E-02 1.85285E-03-3.74886E-03
 -1      1907 9.76632E-02-2.22883E-02-2.06071E-02 4.18164E-02 2.60299E-04-2.15989E-03
 -1      1908 1.41378E-01-4.41135E-02-3.93027E-02 1.38675E-02-1.36258E-03-4.67058E-03
 -1      1909 1.52011E-01-4.42594E-02-3.56337E-02 2.82598E-02-3.75163E-04-1.27542E-02
 -1      1910 1.31559E-01-2.87235E-02-3.93626E-02 4.69970E-02 6.99342E-04-6.08807E-03
 -1      1911 5.92283E-02-1.73626E-02-1.25614E-02 1.69713E-02 7.15523E-04-6.41961E-03
 -1      1912 1.18707E-01-1.93662E-02-3.71386E-02 4.83615E-02-2.38884E-03 9.25541E-03
 -1      1913 1.12084E-01-5.57422E-03-2.87635E-02 4.90504E-02 2.71869E-03-2.37813E-02
 -1      1914 1.14769E-01-1.41385E-02-1.96591E-02 5.45033E-02 1.48672E-03-2.19202E-02
 -1      1915 1.07749E-01-4.83879E-03-3.27212E-02 4.63899E-02 8.25108E-04-2.35044E-02
 -1      1916 1.19400E-01-1.11034E-02-3.55348E-02 4.73972E-02 1.56705E-03-2.15637E-02
 -1      1917 1.08628E-01-1.36319E-02-2.18922E-02 4.72195E-02 2.10923E-03-2.19070E-02
 -1      1918 1.33487E-01-3.06695E-02-4.05247E-02 4.67326E-02-2.12918E-05-5.46911E-03
 -1      1919 1.25824E-01-2.02349E-02-3.82775E-02 4.91465E-02 8.06058E-04-1.13466E-02
 -1      1920 1.34312E-01-3.70940E-02-4.14195E-02 2.43426E-02-1.44546E-03 4.38008E-04
 -1      1921 1.50996E-01-4.58717E-02-3.60151E-02 2.87408E-02-8.13944E-04-1.12799E-02
 -1      1922 1.14027E-01-1.62270E-02-1.98581E-02 5.29832E-02-7.05435E-05-1.97532E-02
 -1      1923 7.56418E-02-1.35109E-02-1.88119E-02 2.02562E-02 2.71567E-05 1.38497E-02
 -1      1924 6.65803E-02-1.55950E-02-1.08667E-02 1.99611E-02-1.97356E-03 1.21542E-02
 -1      1925 8.30660E-02-2.32601E-02-2.40790E-02 2.49484E-02-3.31174E-03 5.88471E-03
 -1      1926 6.47036E-02-1.96074E-02-2.03533E-02 1.40874E-02-1.49570E-03 2.14998E-03
 -1      1927 1.01066E-01-1.42997E-02-1.37590E-02 4.76519E-02 1.16875E-04-2.64833E-03
 -1      1928 1.39430E-01-3.74148E-02-1.10421E-02 4.18692E-02 3.76998E-03-2.01573E-02
 -1      1929 9.94621E-02-2.99585E-02-2.98747E-02 1.96746E-02-1.06027E-03 2.56446E-03
 -1      1930 6.33008E-02-1.84697E-02-1.65735E-02 1.66268E-02-1.97654E-03 9.19568E-03
 -1      1931 1.20114E-01-1.75308E-02-1.91175E-02 5.65245E-02 1.17300E-04 1.76546E-02
 -1      1932 1.53188E-01-4.69414E-02-2.77317E-02 3.41471E-02-1.46208E-03 1.21610E-02
 -1      1933 1.50350E-01-4.81128E-02-1.04352E-02 3.78250E-02 5.99092E-04 1.90230E-02
 -1      1934 1.27635E-01-1.76155E-02-1.54505E-02 5.75198E-02-8.60947E-04 2.08744E-02
 -1      1935 1.66121E-01-5.75082E-02-2.54364E-02 3.03173E-02-3.80211E-03 1.83583E-02
 -1      1936 1.35933E-01-3.24514E-02-3.67927E-02 4.68047E-02-7.16488E-04 1.25056E-02
 -1      1937 6.99803E-02-1.22388E-02-8.19661E-03 2.47829E-02 1.17453E-03-7.03830E-03
 -1      1938 6.31220E-02-1.44059E-02-7.48950E-03 1.91776E-02 9.29206E-04-7.56258E-03
 -1      1939 3.12939E-02-8.60295E-03-2.78671E-03 1.64365E-03-2.69159E-04 8.89650E-03
 -1      1940 6.07471E-02-1.78354E-02-1.46308E-02 1.72978E-02-1.23545E-03 8.78678E-03
 -1      1941 6.42869E-02-1.66270E-02-1.16431E-02 1.80477E-02-1.55170E-03 1.02620E-02
 -1      1942 5.01829E-02-1.09526E-02-5.42599E-03 8.92940E-03-6.38474E-04 1.28418E-02
 -1      1943 7.77683E-02-2.26587E-02-1.98836E-02 2.44939E-02-3.41508E-03 9.96741E-03
 -1      1944 4.61605E-02-1.51452E-02-8.81357E-03 8.55207E-03-8.79260E-04 1.12482E-02
 -1      1945 4.09559E-02-9.35400E-03-5.65137E-03 6.09614E-03-3.36447E-04-5.05458E-03
 -1      1946 1.48714E-01-4.26552E-02-3.99868E-02 2.17795E-02 1.08680E-03 8.04485E-03
 -1      1947 1.39948E-01-3.77474E-02-4.02837E-02 3.29175E-02 3.21249E-04 6.59548E-03
 -1      1948 8.94457E-02-1.10950E-02-2.37072E-02 3.97052E-02 1.67829E-03-1.26803E-02
 -1      1949 7.87953E-02-1.64146E-02-2.50998E-02 1.97341E-02 4.02838E-04 8.67172E-03
 -1      1950 6.26630E-02-1.02513E-02-8.10780E-03 1.68550E-02-1.08380E-03 1.88465E-02
 -1      1951 8.51486E-02-1.18437E-02-1.28924E-02 3.86425E-02 5.78328E-04-7.17932E-03
 -1      1952 7.93652E-02-1.27409E-02-9.89973E-03 3.32411E-02 3.09253E-04-3.67013E-03
 -1      1953 1.32763E-01-1.68915E-02-4.80641E-02 4.83124E-02-3.12315E-03 1.42830E-02
 -1      1954 1.15196E-01-1.08141E-02-1.91050E-02 5.07246E-02-1.35998E-03 3.02007E-02
 -1      1955 1.25514E-01-2.93228E-02-3.70539E-02 4.44009E-02 1.39822E-04 3.83915E-03
 -1      1956 1.07323E-01-1.58850E-02-1.94707E-02 4.79554E-02 7.49333E-04-1.32982E-02
 -1      1957 7.04323E-02-1.50862E-02-1.13983E-02 2.34862E-02-9.56510E-04 1.09220E-02
 -1      1958 6.09371E-02-1.52106E-02-1.06552E-02 1.61966E-02-9.19288E-04 1.01099E-02
 -1      1959 5.67604E-02-1.66051E-02-1.31673E-02 1.46903E-02-1.22606E-03 9.53349E-03
 -1      1960 1.03960E-01-3.18065E-02-3.09113E-02 3.71687E-02-1.03139E-03 2.17455E-03
 -1      1961 1.01638E-01-1.11389E-02-1.92715E-02 4.73110E-02-8.48750E-04 2.01456E-02
 -1      1962 8.25670E-02-2.47114E-02-2.47854E-02 1.70706E-02 1.03272E-04-1.11584E-03
 -1      1963 7.14154E-02-2.20476E-02-2.08242E-02 1.84891E-02-1.82850E-04 9.60962E-05
 -1      1964 6.59483E-02-1.87909E-02-1.80389E-02 1.83487E-02-2.02571E-03 7.82951E-03
 -1      1965 1.34761E-01-3.89495E-02-3.38307E-02 2.50552E-02 2.24859E-04 5.01659E-03
 -1      1966 1.44900E-01-4.01902E-02-3.57978E-02 2.77478E-02 1.15941E-04 1.01590E-02
 -1      1967 5.22367E-02-1.56455E-02-1.33500E-02 1.03096E-02-1.84296E-03 1.14203E-02
 -1      1968 7.80285E-02-1.21468E-02-1.06501E-02 3.06024E-02-9.26132E-04 1.34533E-02
 -1      1969 1.35528E-01-2.98892E-02-4.23806E-02 4.74367E-02-3.54331E-04 6.02261E-03
 -1      1970 7.97030E-02-1.37984E-02-1.63273E-02 2.95168E-02 2.31576E-03-1.71024E-02
 -1      1971 1.55097E-01-4.76361E-02-3.63473E-02 2.14647E-02 2.41423E-04 1.76630E-02
 -1      1972 7.58952E-02-1.31136E-02-9.33852E-03 2.95865E-02-2.84660E-04-1.25222E-03
 -1      1973 8.27597E-02-2.29309E-02-2.36738E-02 2.56647E-02-3.15262E-03 4.70290E-03
 -1      1974 6.99668E-02-1.93023E-02-2.05333E-02 1.85178E-02-1.97499E-03 5.13255E-03
 -1      1975 5.88072E-02-1.72407E-02-1.71474E-02 1.03043E-02-1.63898E-03 7.63999E-03
 -1      1976 4.13528E-02-8.39593E-03-3.50555E-03 5.32807E-03 1.23950E-04 1.12469E-02
 -1      1977 3.16455E-02-7.73305E-03-3.16954E-03 1.92047E-03-1.61643E-04 9.05241E-03
 -1      1978 6.39443E-02-1.92697E-02-1.98874E-02 1.30072E-02 1.62638E-03-2.82434E-03
 -1      1979 6.79134E-02-2.05514E-02-1.94304E-02 1.49459E-02 2.04388E-03-6.86230E-03
 -1      1980 6.78279E-02-1.95146E-02-1.97261E-02 1.75727E-02-2.03493E-03 5.32131E-03
 -1      1981 1.05286E-01-3.03820E-02-3.17692E-02 5.04948E-02 4.18692E-04-2.53978E-04
 -1      1982 6.20183E-02-1.90282E-02-1.87044E-02 1.02606E-02 6.86358E-04-2.70634E-03
 -1      1983 7.44061E-02-2.23119E-02-2.13625E-02 2.26087E-02 1.99171E-03-4.58756E-03
 -1      1984 1.03432E-01-2.75017E-02-3.20651E-02 4.90075E-02 7.82356E-04-3.24516E-04
 -1      1985 7.07297E-02-2.17586E-02-2.09866E-02 1.54936E-02 8.24064E-04-2.50949E-03
 -1      1986 3.81747E-02-7.80216E-03-3.99573E-03 3.75009E-03 4.70668E-04-6.98546E-03
 -1      1987 3.07702E-02-7.59599E-03-2.99612E-03 1.08508E-03 3.18311E-04-8.78078E-03
 -1      1988 5.90619E-02-1.35056E-02-7.49709E-03 1.55380E-02 1.25778E-03-9.74881E-03
 -1      1989 5.70304E-02-1.62455E-02-1.09427E-02 1.57687E-02 1.00573E-03-8.99740E-03
 -1      1990 1.06407E-01-3.03720E-03-3.38681E-02 4.82487E-02-5.82915E-05 2.33049E-02
 -1      1991 1.04559E-01-6.83894E-03-3.14416E-02 4.69715E-02 3.83722E-04 2.06987E-02
 -1      1992 1.25085E-01-1.82276E-02-3.81722E-02 4.90853E-02-1.92549E-03 1.24096E-02
 -1      1993 1.08055E-01-1.18119E-02-2.02690E-02 5.13508E-02 5.10816E-04 2.50400E-02
 -1      1994 7.53299E-02-1.34828E-02-1.93431E-02 1.87069E-02 5.92744E-04-1.40912E-02
 -1      1995 1.94518E-01-5.64386E-02-5.59628E-02 2.95367E-02-4.33735E-03 1.77298E-02
 -1      1996 1.66089E-01-3.84068E-02-4.91867E-02 5.11703E-02 1.59571E-03 1.48939E-02
 -1      1997 1.83396E-01-5.70955E-02-4.19547E-02 2.87950E-02 2.69442E-03 2.85512E-02
 -1      1998 1.57914E-01-4.45930E-02-4.31654E-02 2.17612E-02 1.02470E-03 7.58182E-03
 -1      1999 1.64018E-01-4.59627E-02-2.10629E-02 3.67364E-02 1.35025E-04 4.20082E-02
 -1      2000 1.37522E-01-1.72293E-02-1.95682E-02 6.01489E-02 1.81699E-04 3.68709E-02
 -1      2001 1.79107E-01-4.30975E-02-1.82408E-02 6.02594E-02-1.01719E-03 2.78875E-02
 -1      2002 1.46332E-01-1.37520E-02-4.11496E-02 6.03413E-02-5.40422E-04 2.51369E-02
 -1      2003 1.47213E-01-1.43187E-02-3.53895E-02 5.09599E-02-1.38721E-03 3.87472E-02
 -1      2004 1.55044E-01-4.88389E-02-3.61624E-02 1.98174E-02 7.72097E-04 1.70866E-02
 -1      2005 1.96498E-01-5.68205E-02-5.63798E-02 3.03727E-02-4.51428E-03 1.83988E-02
 -1      2006 1.81377E-01-5.51605E-02-4.17486E-02 3.07893E-02 2.20536E-03 2.88197E-02
 -1      2007 1.62850E-01-3.61319E-02-4.96136E-02 5.11835E-02 8.79077E-04 1.36596E-02
 -1      2008 1.56753E-01-4.30793E-02-4.33520E-02 2.34375E-02 6.49830E-04 7.48094E-03
 -1      2009 1.47094E-01-1.32366E-02-4.23071E-02 5.96910E-02-1.11084E-03 2.47272E-02
 -1      2010 1.32708E-01-1.51666E-02-1.95865E-02 5.91430E-02-1.96826E-05 3.60103E-02
 -1      2011 1.43792E-01-1.31685E-02-3.50162E-02 5.08198E-02-1.24584E-03 3.79331E-02
 -1      2012 1.66169E-01-4.69752E-02-2.05755E-02 3.71030E-02-1.30135E-04 4.28773E-02
 -1      2013 1.73416E-01-4.03416E-02-1.78724E-02 6.09161E-02-1.11357E-03 2.71989E-02
 -1      2014 3.56467E-02-9.12741E-03-2.59083E-03 6.74861E-04-6.19427E-04 1.52786E-02
 -1      2015 4.99029E-02-1.47833E-02-1.14683E-02 8.68550E-03-2.03629E-03 1.27999E-02
 -1      2016 5.15080E-02-1.07681E-02-6.29033E-03 7.10199E-03-1.45471E-03 1.60518E-02
 -1      2017 4.13338E-02-1.07456E-02-5.51559E-03 3.19322E-03-6.72594E-04 1.25643E-02
 -1      2018 5.08909E-02-1.44268E-02-1.52184E-02 3.77326E-03-2.62050E-04 7.81288E-03
 -1      2019 6.76083E-02-1.73991E-02-1.92212E-02 9.85132E-03-3.39744E-03 8.92641E-03
 -1      2020 5.49855E-02-1.61114E-02-1.50216E-02 1.01828E-02-1.40415E-03 6.41194E-03
 -1      2021 5.37942E-02-9.44012E-03-1.40794E-02 1.27601E-03-1.57144E-03 1.11605E-02
 -1      2022 7.05780E-02-1.04699E-02-1.49778E-02 1.09856E-02-8.84013E-04 2.02783E-02
 -1      2023 1.22315E-01-1.48210E-02-1.83472E-02 5.30118E-02-4.08480E-04 2.61651E-02
 -1      2024 6.43153E-02-1.87475E-02-1.47820E-02 1.73168E-02 1.84554E-03-8.95727E-03
 -1      2025 5.56241E-02-1.02985E-02-6.64128E-03 1.20101E-02-9.83835E-04 1.48667E-02
 -1      2026 5.42944E-02-9.95870E-03-1.42088E-02 2.24495E-03 1.43198E-03-1.10080E-02
 -1      2027 6.90231E-02-1.82553E-02-2.04529E-02 1.14959E-02 3.90321E-03-8.08312E-03
 -1      2028 5.35887E-02-1.15467E-02-7.84523E-03 8.15473E-03 1.83184E-03-1.53667E-02
 -1      2029 7.22866E-02-1.17015E-02-1.69459E-02 1.15475E-02 1.58680E-03-1.91356E-02
 -1      2030 3.59623E-02-9.38371E-03-2.67533E-03 1.15230E-03 5.44371E-04-1.51882E-02
 -1      2031 5.11391E-02-1.48877E-02-1.26939E-02 9.64237E-03 2.23468E-03-1.20657E-02
 -1      2032 4.29233E-02-1.14132E-02-6.76211E-03 4.28716E-03 7.77525E-04-1.20906E-02
 -1      2033 5.12678E-02-1.48624E-02-1.53747E-02 4.51810E-03 1.73655E-04-7.58029E-03
 -1      2034 5.61292E-02-1.62158E-02-1.59198E-02 1.10206E-02 1.83149E-03-5.86348E-03
 -1      2035 1.34646E-01-1.88197E-02-4.66115E-02 4.91459E-02-2.47094E-03 1.47690E-02
 -1      2036 1.17986E-01-1.23570E-02-2.32569E-02 5.00853E-02-1.42058E-03 2.98372E-02
 -1      2037 5.44424E-02-1.66069E-02-1.43365E-02 1.16709E-02 1.74354E-03-1.04539E-02
 -1      2038 5.15363E-02-1.23608E-02-6.64120E-03 8.98432E-03 9.99662E-04-1.21471E-02
 -1      2039 4.68472E-02-1.48922E-02-9.97998E-03 9.79477E-03 6.24925E-04-1.04816E-02
 -1      2040 3.77532E-02-8.11313E-03-3.27426E-03 4.36764E-03-6.98448E-04 7.19343E-03
 -1      2041 6.15385E-02-1.90690E-02-1.84529E-02 1.02035E-02 6.27028E-04-2.34670E-03
 -1      2042 7.63772E-02-9.55230E-03-2.21903E-02 1.99642E-02 1.02864E-03-1.44593E-02
 -1      2043 1.28271E-01-3.87360E-02-3.93608E-02 1.09291E-02 6.68050E-04-2.26877E-03
 -1      2044 1.49376E-01-4.39945E-02-3.97953E-02 2.04911E-02 1.40964E-03 8.35273E-03
 -1      2045 6.13773E-02-1.81493E-02-1.79732E-02 1.06790E-02 1.68699E-03-7.14520E-03
 -1      2046 1.34198E-01-3.96536E-02-2.82451E-02 2.79585E-02 6.72306E-05 2.78260E-03
 -1      2047 1.06268E-01-3.11816E-02-3.13321E-02 4.51934E-02-1.10075E-03 1.64340E-03
 -1      2048 9.55633E-02-2.48768E-02-2.90396E-02 3.66620E-02 2.51870E-03-4.15859E-03
 -1      2049 9.82364E-02-2.30571E-02-2.85235E-02 3.89212E-02 1.77391E-03-5.95141E-03
 -1      2050 1.15822E-01-2.33763E-02-3.52404E-02 4.71699E-02 1.14412E-03-5.63420E-03
 -1      2051 9.87768E-02-1.96336E-02-2.63748E-02 3.96371E-02 1.36978E-03-9.17123E-03
 -1      2052 9.84359E-02-2.41298E-02-2.90165E-02 4.12043E-02-1.58609E-03 4.62319E-03
 -1      2053 8.19071E-02-1.27526E-02-1.53830E-02 3.31506E-02-1.43170E-03 1.14461E-02
 -1      2054 1.04882E-01-1.67276E-02-1.52281E-02 4.82283E-02-7.93642E-04-7.34977E-03
 -1      2055 1.02417E-01-1.61372E-02-1.83211E-02 4.77714E-02 4.13400E-04-4.65672E-03
 -1      2056 9.72917E-02-1.26096E-02-1.51533E-02 4.75150E-02 8.95843E-05 9.03108E-03
 -1      2057 1.03176E-01-2.11760E-02-2.88945E-02 4.48834E-02 1.79640E-03-7.49226E-03
 -1      2058 1.03220E-01-2.46752E-02-3.09777E-02 4.39783E-02 1.50620E-03-4.52058E-03
 -1      2059 7.62728E-02-1.86750E-02-1.42861E-02 2.67646E-02-1.80090E-03 5.95175E-03
 -1      2060 1.19335E-01-3.71128E-02-3.36688E-02 2.13437E-02 1.06132E-03-6.14967E-05
 -1      2061 1.09095E-01-2.25624E-02-2.39636E-02 4.81749E-02 7.13450E-04-2.71190E-03
 -1      2062 8.47860E-02-9.68082E-03-2.12936E-02 3.41130E-02 1.68061E-03-1.45949E-02
 -1      2063 1.36247E-01-3.72825E-02-3.75095E-02 2.64512E-02-6.92364E-05 3.90016E-03
 -1      2064 9.21880E-02-2.74542E-02-2.71555E-02 2.17898E-02 9.18567E-04-3.38141E-03
 -1      2065 8.89154E-02-2.69590E-02-2.68293E-02 1.70054E-02 2.38965E-04-1.87402E-03
 -1      2066 8.69236E-02-2.55565E-02-2.65716E-02 2.11913E-02 1.44303E-03-3.82136E-03
 -1      2067 9.43991E-02-1.17682E-02-1.35151E-02 4.59185E-02 5.44448E-04-1.05565E-02
 -1      2068 9.63104E-02-2.76880E-02-2.84401E-02 4.03443E-02-1.95534E-03 2.64067E-03
 -1      2069 7.55440E-02-1.86845E-02-1.27356E-02 2.65625E-02 1.24465E-03-2.76302E-03
 -1      2070 9.87771E-02-2.60688E-02-3.07620E-02 4.18517E-02 2.15043E-03-2.86248E-03
 -1      2071 8.88117E-02-2.63062E-02-2.71006E-02 1.97520E-02-1.21172E-03 3.23667E-03
 -1      2072 7.60029E-02-2.33591E-02-2.19013E-02 1.80406E-02 8.10455E-04-3.71569E-03
 -1      2073 4.80341E-02-1.38689E-02-8.77370E-03 8.22344E-03-3.85083E-05-2.16522E-03
 -1      2074 5.30012E-02-1.34803E-02-8.80951E-03 1.09636E-02-3.57307E-05 1.08386E-05
 -1      2075 7.64706E-02-2.29452E-02-2.21673E-02 2.41868E-02 1.88195E-03-4.56285E-03
 -1      2076 8.42520E-02-2.49216E-02-2.32881E-02 2.85524E-02 2.73842E-03-6.75037E-03
 -1      2077 4.82465E-02-1.40597E-02-8.64762E-03 8.34117E-03-1.22587E-04 2.06677E-03
 -1      2078 9.61283E-02-1.12732E-02-2.64479E-02 4.36003E-02-2.14473E-04-1.47158E-02
 -1      2079 7.21422E-02-1.53743E-02-1.41396E-02 2.18559E-02 2.04041E-03-1.49633E-02
 -1      2080 9.11539E-02-1.19651E-02-1.32196E-02 4.45207E-02-1.86281E-04-1.33935E-03
 -1      2081 1.02259E-01-3.02827E-02-2.94363E-02 4.27278E-02-1.69225E-03 2.47812E-03
 -1      2082 1.07311E-01-3.12923E-02-3.24474E-02 4.97954E-02-2.70941E-04 6.08072E-04
 -1      2083 9.36996E-02-2.35224E-02-2.03953E-02 3.73764E-02 1.52442E-03-4.95292E-03
 -1      2084 1.38121E-01-3.86270E-02-1.46803E-02 3.64619E-02-4.07103E-04-6.01700E-03
 -1      2085 1.26770E-01-3.58271E-02-1.51029E-02 3.49939E-02-2.73704E-05 3.53402E-05
 -1      2086 9.52779E-02-1.13386E-02-2.57651E-02 4.34901E-02-6.48303E-04 1.50678E-02
 -1      2087 7.47021E-02-2.22647E-02-2.14336E-02 2.05899E-02 1.96179E-03-5.98164E-03
 -1      2088 1.04903E-01-3.22533E-02-3.12770E-02 2.08335E-02 1.02489E-03-2.12934E-03
 -1      2089 1.38698E-01-3.90476E-02-1.45845E-02 3.68777E-02-3.21018E-05 6.08045E-03
 -1      2090 8.67108E-02-1.28693E-02-1.60494E-02 3.68399E-02-1.48759E-03 1.63816E-02
 -1      2091 9.27480E-02-1.78303E-02-2.69899E-02 3.20227E-02 1.86042E-03-9.03858E-03
 -1      2092 3.89053E-02-1.11257E-02-6.76863E-03 4.20607E-03 8.48135E-04-1.07625E-02
 -1      2093 8.38903E-02-1.01175E-02-2.63411E-02 2.64260E-02 3.16244E-04-1.35060E-02
 -1      2094 1.06208E-01-3.12953E-02-3.18436E-02 2.13939E-02 1.14022E-03-2.02537E-03
 -1      2095 1.07619E-01-3.18400E-02-3.21317E-02 4.20917E-02 1.14165E-03-7.71142E-04
 -1      2096 1.03419E-01-1.64403E-02-1.84634E-02 4.83108E-02-2.59442E-04 4.44462E-03
 -1      2097 6.43203E-02-1.91325E-02-1.51065E-02 1.79322E-02 1.33618E-03-4.02675E-03
 -1      2098 6.02964E-02-9.58730E-03-6.72525E-03 1.71279E-02-1.19623E-03 1.33520E-02
 -1      2099 9.22604E-02-1.03636E-02-1.35174E-02 4.58051E-02 2.87610E-04-1.14442E-02
 -1      2100 9.36902E-02-1.01939E-02-1.74256E-02 4.60811E-02-5.05706E-04 1.40114E-02
 -1      2101 9.08398E-02-2.16275E-02-1.89186E-02 3.70210E-02 9.56470E-04-3.80762E-03
 -1      2102 8.58015E-02-2.31310E-02-2.33772E-02 3.26778E-02 1.43032E-03-5.75713E-03
 -1      2103 1.19722E-01-3.60683E-02-3.68342E-02 1.63327E-02 9.94703E-04-1.59779E-03
 -1      2104 1.33960E-01-4.05017E-02-2.96312E-02 2.60004E-02 3.36473E-04 2.38470E-03
 -1      2105 8.87153E-02-2.15661E-02-2.59109E-02 3.01899E-02 1.96853E-03-6.72790E-03
 -1      2106 1.12440E-01-2.79266E-02-3.46213E-02 4.74668E-02-1.43940E-04 1.58066E-03
 -1      2107 1.44499E-01-3.97168E-02-3.43250E-02 2.89471E-02-6.00643E-04 1.10165E-02
 -1      2108 1.05738E-01-3.03905E-02-3.22029E-02 4.85113E-02 6.79473E-04-1.51919E-04
 -1      2109 3.80896E-02-8.42057E-03-3.61702E-03 4.28231E-03-7.29867E-04 7.10562E-03
 -1      2110 1.03736E-01-1.47690E-02-1.40398E-02 4.90871E-02 1.61876E-04-7.55237E-03
 -1      2111 1.50295E-01-4.75325E-02-1.09003E-02 3.83964E-02 7.29975E-04 1.49518E-02
 -1      2112 1.12152E-01-1.25328E-02-1.54846E-02 5.13391E-02 1.09039E-03 2.08478E-02
 -1      2113 1.00800E-01-5.58389E-03-2.80005E-02 4.65019E-02-2.57918E-03-2.17660E-02
 -1      2114 1.53034E-01-4.19012E-02-1.84778E-02 3.72495E-02 2.59045E-03-1.54576E-02
 -3
 9999
